#************************************************************************************
#*                   Generated by cif2cell 2.1.0 2025-05-02 14:31                   *
#*  T. Bjorkman, Comp. Phys. Commun. 182, 1183-1186 (2011). Please cite generously. *
#*                                                                                  *
#*                              Data obtained from COD                              *
#*                                    None   ()                                     *
#*             Failed to get author information, No journal information             *
#************************************************************************************

&CONTROL
 calculation='scf'
 title='UiO-66 Erster Versuch'
! convergence criterion 1 meV = 3.675e-5 Hartree(a.u.)
!  etot_conv_thr = 3.6D-6 not used for single point ! one order of magnitude below over all conv criterion
 pseudo_dir = '/home/mehlhorn/pseudos/UiO-66_pbe-spn-kjpaw/'
/

&SYSTEM
  ibrav = 0
  A =   14.83397
  nat = 114
  ntyp = 4
! from cif
! activation of DFT+U Hubbard correction?
  ecutwfc = 80
! Ry Trepte2017
  ecutrho = 480
! Kortus: 6xecutrho
  occupations = 'fixed'
! UiO-66 is defenetly an insulator
  input_dft = 'PBE'
! not PBEsol for method consistency with the molecular calculations
/

&ELECTRONS
  conv_thr = 1D-8
! one order of magnitude below the geometry optimization thershold
/

K_POINTS gamma
! should converge for MOFs

CELL_PARAMETERS {alat}
  1.000000000000000   0.000000000000000   0.000000000000000 
  0.500000000000000   0.866025403784439   0.000000000000000 
  0.500000000000000   0.288675134594813   0.816496580927726

ATOMIC_SPECIES
   H    1.00750   H.pbe-kjpaw_psl.1.0.0.UPF
  Zr   91.22400  Zr.pbe-spn-kjpaw_psl.1.0.0.UPF
   C   12.01060   C.pbe-n-kjpaw_psl.1.0.0.UPF
   O   15.99900   O.pbe-n-kjpaw_psl.1.0.0.UPF
! Trepte2017

! primitive cell of Fm-3m from Schwalbe

ATOMIC_POSITIONS {crystal}
Zr   0.879600000000000   0.120400000000000   0.120400000000000 
Zr   0.120400000000000   0.879600000000000   0.879600000000000 
Zr   0.120400000000000   0.120400000000000   0.879600000000000 
Zr   0.879600000000000   0.120400000000000   0.879600000000000 
Zr   0.120400000000000   0.879600000000000   0.120400000000000 
Zr   0.879600000000000   0.879600000000000   0.120400000000000 
 O   0.067270000000000   0.067270000000000   0.067270000000000 
 O   0.737300000000000   0.073600000000000   0.267900000000000 
 O   0.073600000000000   0.737300000000000   0.921200000000000 
 O   0.267900000000000   0.921200000000000   0.737300000000000 
 O   0.921200000000000   0.267900000000000   0.073600000000000 
 O   0.267900000000000   0.073600000000000   0.921200000000000 
 O   0.921200000000000   0.073600000000000   0.737300000000000 
 O   0.073600000000000   0.267900000000000   0.737300000000000 
 O   0.267900000000000   0.737300000000000   0.073600000000000 
 O   0.921200000000000   0.737300000000000   0.267900000000000 
 O   0.073600000000000   0.921200000000000   0.267900000000000 
 O   0.737300000000000   0.921200000000000   0.073600000000000 
 O   0.737300000000000   0.267900000000000   0.921200000000000 
 O   0.737300000000000   0.073600000000000   0.921200000000000 
 O   0.073600000000000   0.737300000000000   0.267900000000000 
 O   0.267900000000000   0.921200000000000   0.073600000000000 
 O   0.921200000000000   0.267900000000000   0.737300000000000 
 O   0.267900000000000   0.073600000000000   0.737300000000000 
 O   0.921200000000000   0.073600000000000   0.267900000000000 
 O   0.073600000000000   0.267900000000000   0.921200000000000 
 O   0.267900000000000   0.737300000000000   0.921200000000000 
 O   0.921200000000000   0.737300000000000   0.073600000000000 
 O   0.073600000000000   0.921200000000000   0.737300000000000 
 O   0.737300000000000   0.921200000000000   0.267900000000000 
 O   0.737300000000000   0.267900000000000   0.073600000000000 
 O   0.067270000000000   0.067270000000000   0.798190000000000 
 O   0.067270000000000   0.798190000000000   0.067270000000000 
 O   0.798190000000000   0.067270000000000   0.067270000000000 
 O   0.950570000000000   0.950570000000000   0.950570000000000 
 O   0.148290000000000   0.950570000000000   0.950570000000000 
 O   0.950570000000000   0.148290000000000   0.950570000000000 
 O   0.950570000000000   0.950570000000000   0.148290000000000 
 C   0.995900000000000   0.308800000000000   0.995900000000000 
 C   0.553400000000000   0.075300000000000   0.459600000000000 
 C   0.075300000000000   0.553400000000000   0.911700000000000 
 C   0.459600000000000   0.911700000000000   0.553400000000000 
 C   0.911700000000000   0.459600000000000   0.075300000000000 
 C   0.459600000000000   0.075300000000000   0.911700000000000 
 C   0.911700000000000   0.075300000000000   0.553400000000000 
 C   0.075300000000000   0.459600000000000   0.553400000000000 
 C   0.459600000000000   0.553400000000000   0.075300000000000 
 C   0.911700000000000   0.553400000000000   0.459600000000000 
 C   0.075300000000000   0.911700000000000   0.459600000000000 
 C   0.553400000000000   0.911700000000000   0.075300000000000 
 C   0.553400000000000   0.459600000000000   0.911700000000000 
 C   0.553400000000000   0.075300000000000   0.911700000000000 
 C   0.075300000000000   0.553400000000000   0.459600000000000 
 C   0.459600000000000   0.911700000000000   0.075300000000000 
 C   0.911700000000000   0.459600000000000   0.553400000000000 
 C   0.459600000000000   0.075300000000000   0.553400000000000 
 C   0.911700000000000   0.075300000000000   0.459600000000000 
 C   0.075300000000000   0.459600000000000   0.911700000000000 
 C   0.459600000000000   0.553400000000000   0.911700000000000 
 C   0.911700000000000   0.553400000000000   0.075300000000000 
 C   0.075300000000000   0.911700000000000   0.553400000000000 
 C   0.553400000000000   0.911700000000000   0.459600000000000 
 C   0.553400000000000   0.459600000000000   0.075300000000000 
 C   0.308800000000000   0.995900000000000   0.699400000000000 
 C   0.995900000000000   0.699400000000000   0.995900000000000 
 C   0.699400000000000   0.995900000000000   0.308800000000000 
 C   0.995900000000000   0.308800000000000   0.699400000000000 
 C   0.699400000000000   0.308800000000000   0.995900000000000 
 C   0.308800000000000   0.995900000000000   0.995900000000000 
 C   0.995900000000000   0.995900000000000   0.308800000000000 
 C   0.699400000000000   0.995900000000000   0.995900000000000 
 C   0.308800000000000   0.699400000000000   0.995900000000000 
 C   0.995900000000000   0.699400000000000   0.308800000000000 
 C   0.995900000000000   0.995900000000000   0.699400000000000 
 C   0.600500000000000   0.993800000000000   0.993800000000000 
 C   0.993800000000000   0.600500000000000   0.411900000000000 
 C   0.411900000000000   0.993800000000000   0.993800000000000 
 C   0.993800000000000   0.411900000000000   0.600500000000000 
 C   0.411900000000000   0.993800000000000   0.600500000000000 
 C   0.993800000000000   0.993800000000000   0.411900000000000 
 C   0.993800000000000   0.411900000000000   0.993800000000000 
 C   0.411900000000000   0.600500000000000   0.993800000000000 
 C   0.993800000000000   0.600500000000000   0.993800000000000 
 C   0.993800000000000   0.993800000000000   0.600500000000000 
 C   0.600500000000000   0.993800000000000   0.411900000000000 
 C   0.600500000000000   0.411900000000000   0.993800000000000 
 H   0.590900000000000   0.138000000000000   0.422000000000000 
 H   0.138000000000000   0.590900000000000   0.849100000000000 
 H   0.422000000000000   0.849100000000000   0.590900000000000 
 H   0.849100000000000   0.422000000000000   0.138000000000000 
 H   0.422000000000000   0.138000000000000   0.849100000000000 
 H   0.849100000000000   0.138000000000000   0.590900000000000 
 H   0.138000000000000   0.422000000000000   0.590900000000000 
 H   0.422000000000000   0.590900000000000   0.138000000000000 
 H   0.849100000000000   0.590900000000000   0.422000000000000 
 H   0.138000000000000   0.849100000000000   0.422000000000000 
 H   0.590900000000000   0.849100000000000   0.138000000000000 
 H   0.590900000000000   0.422000000000000   0.849100000000000 
 H   0.590900000000000   0.138000000000000   0.849100000000000 
 H   0.138000000000000   0.590900000000000   0.422000000000000 
 H   0.422000000000000   0.849100000000000   0.138000000000000 
 H   0.849100000000000   0.422000000000000   0.590900000000000 
 H   0.422000000000000   0.138000000000000   0.590900000000000 
 H   0.849100000000000   0.138000000000000   0.422000000000000 
 H   0.138000000000000   0.422000000000000   0.849100000000000 
 H   0.422000000000000   0.590900000000000   0.849100000000000 
 H   0.849100000000000   0.590900000000000   0.138000000000000 
 H   0.138000000000000   0.849100000000000   0.590900000000000 
 H   0.590900000000000   0.849100000000000   0.422000000000000 
 H   0.590900000000000   0.422000000000000   0.138000000000000 
 H   0.093770000000000   0.093770000000000   0.718690000000000 
 H   0.093770000000000   0.718690000000000   0.093770000000000 
 H   0.093770000000000   0.093770000000000   0.093770000000000 
 H   0.718690000000000   0.093770000000000   0.093770000000000 
