

&CONTROL
 calculation='vc-relax'
 title='UiO-66-dehydrox GeomOpt'
! convergence criterion 1 meV = 3.675e-5 Hartree(a.u.)
 etot_conv_thr = 3.6D-6 ! one order of magnitude below over all conv criterion
 forc_conv_thr = 1.0D-5 ! see optimization of Ba(BH4)2
 pseudo_dir = '/home/mehlhorn/pseudos/UiO-66_pbe-spn-kjpaw/'
/

&SYSTEM
  ibrav = 0
  celldm(1) = 27.59009591 ! from previous run
  nat = 108
  ntyp = 4 ! from cif
! activation of DFT+U Hubbard correction?
  ecutwfc = 80 ! Ry Trepte2017
  ecutrho = 480 ! Kortus: 6xecutrho
  occupations = 'fixed' ! band gap Valenzano2011
  input_dft = 'PBE' ! not PBEsol for method consistency with the molecular calculations
/

&ELECTRONS
  conv_thr = 1D-8 ! one order of magnitude below the geometry optimization thershold
/

&IONS
  ion_dynamics = 'bfgs' ! understood algorithm
/

&CELL
  cell_dynamics = 'bfgs'
/

K_POINTS gamma ! should converge for MOFs

ATOMIC_SPECIES
   H    1.00750   H.pbe-kjpaw_psl.1.0.0.UPF
  Zr   91.22400  Zr.pbe-spn-kjpaw_psl.1.0.0.UPF
   C   12.01060   C.pbe-n-kjpaw_psl.1.0.0.UPF
   O   15.99900   O.pbe-n-kjpaw_psl.1.0.0.UPF ! Trepte2017

! primitive cell from Valenzanos CRYSTAL input

CELL_PARAMETERS (alat)
   0.997472947  -0.000036368  -0.000025559
   0.473142123   0.878116922  -0.000025374
   0.473142543   0.282505957   0.831433036

ATOMIC_POSITIONS (crystal)
Zr               0.8730185572        0.1188225181        0.1223492341
Zr               0.1269814428        0.8811764819        0.8776507659
Zr               0.1223495046        0.8730181941        0.1188222942
Zr               0.8776504954        0.1269818059        0.8811767058
Zr               0.1188224274        0.1223491588        0.8730181255
Zr               0.8811765726        0.8776508412        0.1269818745
O                0.9192941257        0.2615935283        0.0849696406
O                0.0807058743        0.7384064717        0.9150303594
O                0.0849696837        0.9192931766        0.2615939922
O                0.9150303163        0.0807068234        0.7384060078
O                0.2615939044        0.0849702898        0.9192928316
O                0.7384060956        0.9150297102        0.0807071684
O                0.7550089597        0.0535417216        0.9178478003
O                0.2449910403        0.9464582784        0.0821521997
O                0.9178472586        0.7550085015        0.0535433822
O                0.0821527414        0.2449914985        0.9464566178
O                0.0535426647        0.9178472416        0.7550087374
O                0.9464573353        0.0821527584        0.2449912626
O                0.2660945967        0.9227640561        0.7335688131
O                0.7339054033        0.0772359439        0.2664311869
O                0.7335685317        0.2660946567        0.9227643782
O                0.2664314683        0.7339053433        0.0772356218
O                0.9227644384        0.7335685558        0.2660945929
O                0.0772355616        0.2664314442        0.7339054071
O                0.0839814218        0.7267338839        0.2588728062
O                0.9160185782        0.2732661161        0.7411271938
O                0.2588726547        0.0839817650        0.7267342937
O                0.7411273453        0.9160182350        0.2732657063
O                0.7267342806        0.2588724867        0.0839816909
O                0.2732657194        0.7411275133        0.9160183091
O                0.8361968730        0.0445031807        0.0478145458
O                0.1638031270        0.9554968193        0.9521854542
O                0.0478142640        0.8361970387        0.0445033495
O                0.9521857360        0.1638029613        0.9554966505
O                0.0445031525        0.0478143816        0.8361970135
O                0.9554968475        0.9521856184        0.1638029865
C                0.6972025705        0.9966772478        0.3094086765
C                0.3027974295        0.0033227522        0.6905913235
C                0.3094085491        0.6972028123        0.9966773086
C                0.6905914509        0.3027971877        0.0033226914
C                0.9966762348        0.3094080449        0.6972032261
C                0.0033237652        0.6905919551        0.3027967739
C                0.0000896555        0.7043602979        0.9878577336
C                0.9999103445        0.2956397021        0.0121422664
C                0.9878582832        0.0000893712        0.7043600576
C                0.0121417168        0.9999106288        0.2956399424
C                0.7043605275        0.9878581323        0.0000891214
C                0.2956394725        0.0121418677        0.9999108786
C                0.9998040314        0.4015543271        0.0051920495
C                0.0001959686        0.5984456729        0.9948079505
C                0.0051936107        0.9998018790        0.4015544423
C                0.9948063893        0.0001981210        0.5984455577
C                0.4015544100        0.0051926091        0.9998034139
C                0.5984455900        0.9948073909        0.0001965861
C                0.4043233702        0.0019032617        0.5918440766
C                0.5956766298        0.9980967383        0.4081559234
C                0.5918436674        0.4043235381        0.0019044922
C                0.4081563326        0.5956764619        0.9980955078
C                0.0019041704        0.5918438175        0.4043237198
C                0.9980958296        0.4081561825        0.5956762802
C                0.9097107122        0.4627758039        0.0721584969
C                0.0902892878        0.5372241961        0.9278415031
C                0.0721571541        0.9097121573        0.4627759034
C                0.9278428459        0.0902878427        0.5372240966
C                0.4627763822        0.0721578707        0.9097110000
C                0.5372236178        0.9278421293        0.0902890000
C                0.5605575658        0.0669484789        0.9098274507
C                0.4394424342        0.9330515211        0.0901725493
C                0.9098280525        0.5605570362        0.0669489372
C                0.0901719475        0.4394429638        0.9330510628
C                0.0669497676        0.9098262070        0.5605573428
C                0.9330502324        0.0901737930        0.4394426572
C                0.4570502146        0.9134027945        0.5506318644
C                0.5429497854        0.0865972055        0.4493681356
C                0.5506320249        0.4570502991        0.9134018656
C                0.4493679751        0.5429497009        0.0865981344
C                0.9134020746        0.5506314937        0.4570507125
C                0.0865979254        0.4493685063        0.5429492875
C                0.0884929708        0.5405635738        0.4479488386
C                0.9115070292        0.4594364262        0.5520511614
C                0.4479489015        0.0884941418        0.5405633769
C                0.5520510985        0.9115058582        0.4594366231
C                0.5405637468        0.4479482984        0.0884930617
C                0.4594362532        0.5520517016        0.9115069383
H                0.5912810734        0.4223852926        0.8466582062
H                0.4087189266        0.5776147074        0.1533417938
H                0.8466579605        0.5912809027        0.4223852575
H                0.1533420395        0.4087190973        0.5776147425
H                0.4223850659        0.8466579642        0.5912810279
H                0.5776149341        0.1533420358        0.4087189721
H                0.5733989240        0.4062640809        0.1566788188
H                0.4266010760        0.5937359191        0.8433211812
H                0.1566787852        0.5733993515        0.4062641881
H                0.8433212148        0.4266006485        0.5937358119
H                0.4062645788        0.1566784786        0.5733989916
H                0.5937354212        0.8433215214        0.4266010084
H                0.1278375178        0.8401169444        0.4323673936
H                0.8721624822        0.1598830556        0.5676326064
H                0.4323676319        0.1278370767        0.8401170087
H                0.5676323681        0.8721629233        0.1598829913
H                0.8401177807        0.4323666378        0.1278375226
H                0.1598822193        0.5676333622        0.8721624774
H                0.1180054115        0.8401101902        0.6091789910
H                0.8819945885        0.1598898098        0.3908210090
H                0.6091797602        0.1180052954        0.8401096263
H                0.3908202398        0.8819947046        0.1598903737
H                0.8401099993        0.6091785365        0.1180063610
H                0.1598900007        0.3908214635        0.8819936390
