&inputpp
    calculation= 'eps'

/
&ENERGY_GRID
    smeartype='gauss'
    intersmear= 0.15
    intrasmear= 0.0
    wmax= 3        ! frequency intervall
    wmin= 0
    nw= 50            ! frequency steps
    shift= 0.0
/

! keine Ahnung was die machen
! https://pranabdas.github.io/espresso/hands-on/epsilon/
! wichtig ist am Ende die Datei "epsr_pwscf.dat"
