

&CONTROL
 calculation='vc-relax'
 title='UiO-66-dehydrox GeomOpt'
! convergence criterion 1 meV = 3.675e-5 Hartree(a.u.)
 etot_conv_thr = 3.6D-6 ! one order of magnitude below over all conv criterion
 forc_conv_thr = 1.0D-3 ! see optimization of Ba(BH4)2
 nstep = 750 ! should run about 15 h
 pseudo_dir = '/home/mehlhorn/pseudos/UiO-66_pbe-spn-kjpaw/'
/

&SYSTEM
  ibrav = 0
  celldm(1) = 27.59009591 ! from previous run
  nat = 108
  ntyp = 4 ! from cif
! activation of DFT+U Hubbard correction?
  ecutwfc = 150 ! Ry Trepte2017
  ecutrho = 900 ! Kortus: 6xecutrho
  occupations = 'fixed' ! band gap Valenzano2011
  input_dft = 'PBE' ! not PBEsol for method consistency with the molecular calculations
/

&ELECTRONS
  conv_thr = 1D-8 ! one order of magnitude below the geometry optimization thershold
/

&IONS
  ion_dynamics = 'bfgs' ! understood algorithm
/

&CELL
  cell_dynamics = 'bfgs'
/

K_POINTS gamma ! should converge for MOFs

ATOMIC_SPECIES
   H    1.00750   H.pbe-kjpaw_psl.1.0.0.UPF
  Zr   91.22400  Zr.pbe-spn-kjpaw_psl.1.0.0.UPF
   C   12.01060   C.pbe-n-kjpaw_psl.1.0.0.UPF
   O   15.99900   O.pbe-n-kjpaw_psl.1.0.0.UPF ! Trepte2017

! primitive cell from Valenzanos CRYSTAL input

CELL_PARAMETERS (alat= 27.59009591)
   0.997642052   0.000086831   0.000061866
   0.473330796   0.878207873   0.000062213
   0.473330528   0.282618522   0.831490513

ATOMIC_POSITIONS (crystal)
Zr               0.8730086046        0.1189793526        0.1221876389
Zr               0.1269913954        0.8810196474        0.8778123611
Zr               0.1221880918        0.8730084025        0.1189793921
Zr               0.8778119082        0.1269915975        0.8810196079
Zr               0.1189783882        0.1221875448        0.8730083649
Zr               0.8810206118        0.8778124552        0.1269916351
O                0.9195924938        0.2615027822        0.0847370730
O                0.0804075062        0.7384972178        0.9152629270
O                0.0847377801        0.9195906542        0.2615034152
O                0.9152622199        0.0804093458        0.7384965848
O                0.2615033002        0.0847374535        0.9195905494
O                0.7384966998        0.9152625465        0.0804094506
O                0.7547309527        0.0540601213        0.9177482310
O                0.2452690473        0.9459398787        0.0822517690
O                0.9177475321        0.7547302022        0.0540619904
O                0.0822524679        0.2452697978        0.9459380096
O                0.0540609076        0.9177488018        0.7547302003
O                0.9459390924        0.0822511982        0.2452697997
O                0.2663821838        0.9222948692        0.7338088558
O                0.7336178162        0.0777051308        0.2661911442
O                0.7338085993        0.2663815866        0.9222961396
O                0.2661914007        0.7336184134        0.0777038604
O                0.9222970064        0.7338088601        0.2663818097
O                0.0777029936        0.2661911399        0.7336181903
O                0.0835440175        0.7269643692        0.2590475405
O                0.9164559825        0.2730356308        0.7409524595
O                0.2590472600        0.0835414575        0.7269643267
O                0.7409527400        0.9164585425        0.2730356733
O                0.7269642071        0.2590485654        0.0835417873
O                0.2730357929        0.7409514346        0.9164582127
O                0.8362116779        0.0446453135        0.0476508859
O                0.1637883221        0.9553546865        0.9523491141
O                0.0476512113        0.8362110491        0.0446455182
O                0.9523487887        0.1637889509        0.9553544818
O                0.0446443560        0.0476507257        0.8362123308
O                0.9553556440        0.9523492743        0.1637876692
C                0.6969896979        0.9971123548        0.3091845439
C                0.3030103021        0.0028876452        0.6908154561
C                0.3091843168        0.6969896740        0.9971103614
C                0.6908156832        0.3030103260        0.0028896386
C                0.9971114600        0.3091847020        0.6969892169
C                0.0028885400        0.6908152980        0.3030107831
C               -0.0000757654        0.7042702860        0.9881972492
C                1.0000757654        0.2957297140        0.0118027508
C                0.9881976530       -0.0000755743        0.7042700378
C                0.0118023470        1.0000755743        0.2957299622
C                0.7042703211        0.9881978340       -0.0000763875
C                0.2957296789        0.0118021660        1.0000763875
C                0.9998693090        0.4016191320        0.0050012827
C                0.0001306910        0.5983808680        0.9949987173
C                0.0050024698        0.9998673068        0.4016195508
C                0.9949975302        0.0001326932        0.5983804492
C                0.4016195515        0.0050027257        0.9998673976
C                0.5983804485        0.9949972743        0.0001326024
C                0.4044608313        0.0016328484        0.5919897255
C                0.5955391687        0.9983671516        0.4080102745
C                0.5919895165        0.4044612977        0.0016339435
C                0.4080104835        0.5955387023        0.9983660565
C                0.0016352556        0.5919897566        0.4044609410
C                0.9983647444        0.4080102434        0.5955390590
C                0.9098210253        0.4626211637        0.0722097220
C                0.0901789747        0.5373788363        0.9277902780
C                0.0722081155        0.9098211037        0.4626217883
C                0.9277918845        0.0901788963        0.5373782117
C                0.4626217626        0.0722076910        0.9098208856
C                0.5373782374        0.9277923090        0.0901791144
C                0.5603376673        0.0671969357        0.9098710673
C                0.4396623327        0.9328030643        0.0901289327
C                0.9098726354        0.5603355946        0.0671978559
C                0.0901273646        0.4396644054        0.9328021441
C                0.0671976261        0.9098713710        0.5603368342
C                0.9328023739        0.0901286290        0.4396631658
C                0.4577251704        0.9128623452        0.5511024391
C                0.5422748296        0.0871376548        0.4488975609
C                0.5511037726        0.4577247883        0.9128616652
C                0.4488962274        0.5422752117        0.0871383348
C                0.9128616799        0.5511034682        0.4577244400
C                0.0871383201        0.4488965318        0.5422755600
C                0.0887529492        0.5402457655        0.4474144362
C                0.9112470508        0.4597542345        0.5525855638
C                0.4474139541        0.0887534148        0.5402459638
C                0.5525860459        0.9112465852        0.4597540362
C                0.5402461481        0.4474132335        0.0887534763
C                0.4597538519        0.5525867665        0.9112465237
H                0.5921028433        0.4236121855        0.8456836027
H                0.4078971567        0.5763878145        0.1543163973
H                0.8456845624        0.5921029566        0.4236107814
H                0.1543154376        0.4078970434        0.5763892186
H                0.4236120468        0.8456835724        0.5921014581
H                0.5763879532        0.1543164276        0.4078985419
H                0.5728443942        0.4052953831        0.1571384741
H                0.4271556058        0.5947046169        0.8428615259
H                0.1571387711        0.5728439695        0.4052971149
H                0.8428612289        0.4271560305        0.5947028851
H                0.4052955305        0.1571376150        0.5728453703
H                0.5947044695        0.8428623850        0.4271546297
H                0.1279337676        0.8403150608        0.4320930071
H                0.8720662324        0.1596849392        0.5679069929
H                0.4320934054        0.1279328160        0.8403146731
H                0.5679065946        0.8720671840        0.1596853269
H                0.8403168804        0.4320907492        0.1279351986
H                0.1596831196        0.5679092508        0.8720648014
H                0.1184461008        0.8401891288        0.6087866045
H                0.8815538992        0.1598108712        0.3912133955
H                0.6087875204        0.1184448410        0.8401889147
H                0.3912124796        0.8815551590        0.1598110853
H                0.8401894498        0.6087851918        0.1184479781
H                0.1598105502        0.3912148082        0.8815520219
