

&CONTROL
 calculation='vc-relax'
 title='UiO-66-NH2-dehydrox GeomOpt'
! convergence criterion 1 meV = 3.675e-5 Hartree(a.u.)
 etot_conv_thr = 3.6D-6 ! one order of magnitude below over all conv criterion
 forc_conv_thr = 1.0D-5 ! see optimization of Ba(BH4)2
 nstep = 750
 pseudo_dir = '/home/mehlhorn/pseudos/UiO-66_pbe-spn-kjpaw/'
/

&SYSTEM
  ibrav = 0
  celldm(1) = 27.52059178 ! from previous run
  nat = 120
  ntyp = 5 ! from cif
! activation of DFT+U Hubbard correction?
  ecutwfc = 100 ! Ry Trepte2017
  ecutrho = 600 ! Kortus: 6xecutrho
  occupations = 'fixed' ! band gap Valenzano2011
  input_dft = 'PBE' ! not PBEsol for method consistency with the molecular calculations
/

&ELECTRONS
  conv_thr = 1D-8 ! one order of magnitude below the geometry optimization thershold
/

&IONS
  ion_dynamics = 'bfgs' ! understood algorithm
/

&CELL
  cell_dynamics = 'bfgs'
/

K_POINTS gamma ! should converge for MOFs

ATOMIC_SPECIES
   H    1.00750   H.pbe-kjpaw_psl.1.0.0.UPF
  Zr   91.22400  Zr.pbe-spn-kjpaw_psl.1.0.0.UPF
   C   12.01060   C.pbe-n-kjpaw_psl.1.0.0.UPF
   O   15.99900   O.pbe-n-kjpaw_psl.1.0.0.UPF ! Trepte2017
   N   14.00650   N.pbe-n-kjpaw_psl.1.0.0.UPF

! modified UiO-66-dehydrox deviated from optimized Valenzano input

CELL_PARAMETERS (alat= 27.52059178)
   0.999445745  -0.001435811  -0.001028963
   0.472798893   0.880542647  -0.001028889
   0.472798589   0.282317612   0.834058213

ATOMIC_POSITIONS (crystal)
Zr               0.8749135641        0.1200173540        0.1244979047
Zr               0.1244978054        0.8749136947        0.1200173508
Zr               0.1200173729        0.1244979875        0.8749135355
Zr               0.8835661646        0.8801373747        0.1271337762
Zr               0.1271339649        0.8835661156        0.8801374257
Zr               0.8801375188        0.1271338585        0.8835662877
O                0.9170719777        0.2641788905        0.0861961986
O                0.0861960944        0.9170716406        0.2641790468
O                0.2641789314        0.0861960730        0.9170717928
O                0.9152784543        0.0879028601        0.7376363350
O                0.0879025973        0.7376364077        0.9152785764
O                0.7376365937        0.9152791195        0.0879014104
O                0.9203452397        0.7629706324        0.0455754917
O                0.7629709324        0.0455760906        0.9203440244
O                0.2449927118        0.9530587605        0.0827409293
O                0.0455752394        0.9203450893        0.7629708199
O                0.8368813287        0.0467118622        0.0500722438
O                0.0500724198        0.8368814639        0.0467116968
O                0.0827409170        0.2449929573        0.9530584304
O                0.9530586887        0.0827408043        0.2449928462
O                0.2675780983        0.7357038458        0.0808496089
O                0.0808491541        0.2675783276        0.7357036358
O                0.7282923712        0.2628443989        0.0826275011
O                0.9241780654        0.7349896038        0.2645216730
O                0.2645217668        0.9241782318        0.7349893020
O                0.7349897165        0.2645219962        0.9241778841
O                0.0467116342        0.0500724124        0.8368814371
O                0.7452160041        0.9185240243        0.2747468147
O                0.0826272785        0.7282925941        0.2628444818
O                0.9574215423        0.9543436389        0.1643516311
O                0.9543435769        0.1643516698        0.9574217270
O                0.1643514761        0.9574217430        0.9543437447
O                0.9185235918        0.2747470775        0.7452160462
O                0.2628447348        0.0826270756        0.7282923936
O                0.2747473469        0.7452163266        0.9185239084
O                0.7357038304        0.0808493701        0.2675781593
N                0.7992498241        0.4599191927        0.1167255976
N                0.1167244832        0.7992488297        0.4599200568
N                0.4599194053        0.1167242099        0.7992489628
N                0.8167458059        0.5986956637        0.4318255544
N                0.5986952054        0.4318254081        0.8167460440
N                0.4318253686        0.8167460158        0.5986955035
C                0.0038305617        0.7080344447        0.9843847118
C                0.9843853905        0.0038295501        0.7080344966
C                0.0150407486       -0.0012009943        0.2987928168
C                0.7080344038        0.9843844851        0.0038304751
C               -0.0042656218        0.4051067637        0.0079094376
C                0.4051066805        0.0079097519       -0.0042660071
C                0.2987925171        0.0150409973       -0.0012008976
C               -0.0012006379        0.2987926768        0.0150407323
C                0.8980791038        0.4793861083        0.0585393754
C                0.0585388214        0.8980784476        0.4793864209
C                0.0979427692        0.5298321169        0.9414152029
C                0.9920166687        0.0019831999        0.6026936041
C                0.0019836590        0.6026934104        0.9920166212
C                0.6026934315        0.9920171611        0.0019827616
C                0.0079094124       -0.0042661990        0.4051070631
C                0.9501270400        0.0933060668        0.4331174205
C                0.3107483784        0.7000499157        0.9994268735
C                0.7000497951        0.9994267345        0.3107483107
C                0.9994275247        0.3107483859        0.7000495242
C                0.5941816432        0.4067131067       -0.0016519880
C                0.0028174125        0.6910209142        0.3056555825
C                0.6910206561        0.3056555947        0.0028179772
C                0.9414157385        0.0979420605        0.5298322983
C                0.5776179045        0.0487269884        0.9045015013
C                0.4331168243        0.9501278059        0.0933062402
C                0.0933064656        0.4331172896        0.9501266668
C                0.0487271095        0.9045012774        0.5776182777
C                0.5298320160        0.9414163278        0.0979423901
C                0.9045023206        0.5776177717        0.0487272925
C                0.4793861859        0.0585389014        0.8980784623
C                0.4481942279        0.0872826102        0.5409813372
C                0.9117069008        0.4598118478        0.5596923091
C                0.5596923844        0.9117066196        0.4598117628
C                0.9078315718        0.5523158479        0.4638207628
C                0.4638208489        0.9078317565        0.5523154438
C                0.5986366311        1.0002422899        0.4093279733
C                0.5523155825        0.4638207063        0.9078320168
C                0.4598117229        0.5596924863        0.9117069005
C                0.0872822295        0.5409819955        0.4481941531
C                0.5409816212        0.4481939141        0.0872827196
C               -0.0016522355        0.5941819884        0.4067132063
C                0.4501865669        0.5422052073        0.0897842162
C                0.5422050554        0.0897838166        0.4501868625
C                0.0897839474        0.4501868374        0.5422053595
C                1.0002420421        0.4093282249        0.5986363909
C                0.4067130662       -0.0016521755        0.5941815912
C                0.4093281154        0.5986365051        1.0002423578
C                0.3056552836        0.0028179268        0.6910207629
H                0.1740809171        0.5499647028        0.8976096068
H                0.8976103382        0.1740804011        0.5499649070
H                0.8311275803        0.6355974123        0.0866483668
H                0.1664314137        0.3746408269        0.9128616757
H                0.5499643441        0.8976114895        0.1740804042
H                0.9128624955        0.1664311544        0.3746408481
H                0.6355976136        0.0866477174        0.8311264425
H                0.3746403368        0.9128635025        0.1664314281
H                0.0866479020        0.8311266379        0.6355978072
H                0.5727275407        0.1593411263        0.4095842983
H                0.1593409027        0.4095846296        0.5727276842
H                0.4095842103        0.5727273160        0.1593414064
H                0.5735077879        0.4022055637        0.1559503895
H                0.1559499398        0.5735081672        0.4022060017
H                0.4271712566        0.6050145985        0.8430660258
H                0.4022056815        0.1559502387        0.5735077919
H                0.6050146916        0.8430659448        0.4271710504
H                0.7928979615        0.3931796526        0.1171330825
H                0.7303793625        0.5246882764        0.1292282700
H                0.8430658215        0.4271713706        0.6050143825
H                0.8201821752        0.6571156455        0.3567567669
H                0.3567567351        0.8201825511        0.6571154444
H                0.7654173226        0.5545385816        0.4652109899
H                0.1292268171        0.7303786157        0.5246887559
H                0.6571153664        0.3567566498        0.8201825152
H                0.5246887301        0.1292262435        0.7303785110
H                0.1171317814        0.7928971910        0.3931801320
H                0.3931799688        0.1171315200        0.7928973007
H                0.5545385985        0.4652112129        0.7654173094
H                0.4652111239        0.7654168994        0.5545388427
