

&CONTROL
 calculation='vc-relax'
 title='UiO-66-dehydrox GeomOpt'
! convergence criterion 1 meV = 3.675e-5 Hartree(a.u.)
 etot_conv_thr = 3.6D-6 ! one order of magnitude below over all conv criterion
 forc_conv_thr = 1.0D-5 ! see optimization of Ba(BH4)2
 nstep = 750 ! should run about 15 h
 pseudo_dir = '/home/mehlhorn/pseudos/UiO-66_pbe-spn-kjpaw/'
/

&SYSTEM
  ibrav = 0
  celldm(1) = 27.59009591 ! from previous run
  nat = 108
  ntyp = 4 ! from cif
! activation of DFT+U Hubbard correction?
  ecutwfc = 80 ! Ry Trepte2017
  ecutrho = 480 ! Kortus: 6xecutrho
  occupations = 'fixed' ! band gap Valenzano2011
  input_dft = 'PBE' ! not PBEsol for method consistency with the molecular calculations
/

&ELECTRONS
  conv_thr = 1D-8 ! one order of magnitude below the geometry optimization thershold
/

&IONS
  ion_dynamics = 'bfgs' ! understood algorithm
/

&CELL
  cell_dynamics = 'bfgs'
/

K_POINTS gamma ! should converge for MOFs

ATOMIC_SPECIES
   H    1.00750   H.pbe-kjpaw_psl.1.0.0.UPF
  Zr   91.22400  Zr.pbe-spn-kjpaw_psl.1.0.0.UPF
   C   12.01060   C.pbe-n-kjpaw_psl.1.0.0.UPF
   O   15.99900   O.pbe-n-kjpaw_psl.1.0.0.UPF ! Trepte2017

! primitive cell from Valenzanos CRYSTAL input

CELL_PARAMETERS (alat)
   0.997656168   0.000095702   0.000068504
   0.473345301   0.878216046   0.000068594
   0.473345269   0.282627066   0.831497764

ATOMIC_POSITIONS (crystal)
Zr               0.8729958110        0.1189841504        0.1221780609
Zr               0.1270041890        0.8810148496        0.8778219391
Zr               0.1221787041        0.8729958200        0.1189839702
Zr               0.8778212959        0.1270041800        0.8810150298
Zr               0.1189839803        0.1221784413        0.8729949029
Zr               0.8810150197        0.8778215587        0.1270050971
O                0.9195846172        0.2615159559        0.0847026851
O                0.0804153828        0.7384840441        0.9152973149
O                0.0847029501        0.9195836515        0.2615166069
O                0.9152970499        0.0804163485        0.7384833931
O                0.2615178016        0.0847026524        0.9195811640
O                0.7384821984        0.9152973476        0.0804188360
O                0.7547421967        0.0540721708        0.9177387880
O                0.2452578033        0.9459278292        0.0822612120
O                0.9177381806        0.7547406622        0.0540752699
O                0.0822618194        0.2452593378        0.9459247301
O                0.0540741369        0.9177387061        0.7547409054
O                0.9459258631        0.0822612939        0.2452590946
O                0.2664020399        0.9222894929        0.7338159897
O                0.7335979601        0.0777105071        0.2661840103
O                0.7338158974        0.2664007410        0.9222904277
O                0.2661841026        0.7335992590        0.0777095723
O                0.9222917792        0.7338154976        0.2664014996
O                0.0777082208        0.2661845024        0.7335985004
O                0.0835564005        0.7269464893        0.2590437891
O                0.9164435995        0.2730535107        0.7409562109
O                0.2590427038        0.0835550916        0.7269459588
O                0.7409572962        0.9164449084        0.2730540412
O                0.7269467072        0.2590437267        0.0835544184
O                0.2730532928        0.7409562733        0.9164455816
O                0.8362017709        0.0446575631        0.0476600202
O                0.1637982291        0.9553424369        0.9523399798
O                0.0476602925        0.8362015390        0.0446579369
O                0.9523397075        0.1637984610        0.9553420631
O                0.0446578725        0.0476602482        0.8362014528
O                0.9553421275        0.9523397518        0.1637985472
C                0.6969801251        0.9971102978        0.3091880519
C                0.3030198749        0.0028897022        0.6908119481
C                0.3091877256        0.6969801100        0.9971093563
C                0.6908122744        0.3030198900        0.0028906437
C                0.9971097822        0.3091876915        0.6969797941
C                0.0028902178        0.6908123085        0.3030202059
C               -0.0000831825        0.7042734335        0.9882160503
C                1.0000831825        0.2957265665        0.0117839497
C                0.9882158471       -0.0000822208        0.7042728461
C                0.0117841529        1.0000822208        0.2957271539
C                0.7042727496        0.9882161900       -0.0000824253
C                0.2957272504        0.0117838100        1.0000824253
C                0.9998790803        0.4016109038        0.0049955349
C                0.0001209197        0.5983890962        0.9950044651
C                0.0049951900        0.9998786694        0.4016113230
C                0.9950048100        0.0001213306        0.5983886770
C                0.4016109661        0.0049952187        0.9998785906
C                0.5983890339        0.9950047813        0.0001214094
C                0.4044678321        0.0016294830        0.5919881128
C                0.5955321679        0.9983705170        0.4080118872
C                0.5919884022        0.4044677143        0.0016298799
C                0.4080115978        0.5955322857        0.9983701201
C                0.0016302393        0.5919881853        0.4044679682
C                0.9983697607        0.4080118147        0.5955320318
C                0.9098292231        0.4626150745        0.0721976028
C                0.0901707769        0.5373849255        0.9278023972
C                0.0721967401        0.9098281289        0.4626165065
C                0.9278032599        0.0901718711        0.5373834935
C                0.4626170697        0.0721963023        0.9098279133
C                0.5373829303        0.9278036977        0.0901720867
C                0.5603328770        0.0671903999        0.9098677968
C                0.4396671230        0.9328096001        0.0901322032
C                0.9098682121        0.5603319228        0.0671920193
C                0.0901317879        0.4396680772        0.9328079807
C                0.0671910965        0.9098680234        0.5603324065
C                0.9328089035        0.0901319766        0.4396675935
C                0.4577244378        0.9128619774        0.5510986638
C                0.5422755622        0.0871380226        0.4489013362
C                0.5510992969        0.4577246862        0.9128617805
C                0.4489007031        0.5422753138        0.0871382195
C                0.9128630680        0.5510997405        0.4577234250
C                0.0871369320        0.4489002595        0.5422765750
C                0.0887500241        0.5402488859        0.4474188996
C                0.9112499759        0.4597511141        0.5525811004
C                0.4474176467        0.0887486997        0.5402501467
C                0.5525823533        0.9112513003        0.4597498533
C                0.5402493524        0.4474178435        0.0887490465
C                0.4597506476        0.5525821565        0.9112509535
H                0.5920924965        0.4236069846        0.8456879686
H                0.4079075035        0.5763930154        0.1543120314
H                0.8456891659        0.5920934619        0.4236046318
H                0.1543108341        0.4079065381        0.5763953682
H                0.4236065385        0.8456884555        0.5920909244
H                0.5763934615        0.1543115445        0.4079090756
H                0.5728612531        0.4052904369        0.1571244493
H                0.4271387469        0.5947095631        0.8428755507
H                0.1571253332        0.5728602736        0.4052926123
H                0.8428746668        0.4271397264        0.5947073877
H                0.4052906482        0.1571240299        0.5728617738
H                0.5947093518        0.8428759701        0.4271382262
H                0.1279176611        0.8403255486        0.4320843780
H                0.8720823389        0.1596744514        0.5679156220
H                0.4320845887        0.1279173274        0.8403255258
H                0.5679154113        0.8720826726        0.1596744742
H                0.8403277263        0.4320815733        0.1279197276
H                0.1596722737        0.5679184267        0.8720802724
H                0.1184420016        0.8401783689        0.6087737040
H                0.8815579984        0.1598216311        0.3912262960
H                0.6087746783        0.1184405998        0.8401773421
H                0.3912253217        0.8815594002        0.1598226579
H                0.8401784096        0.6087721488        0.1184432398
H                0.1598215904        0.3912278512        0.8815567602
