#************************************************************************************
#*                   Generated by cif2cell 2.1.0 2025-04-30 11:27                   *
#*  T. Bjorkman, Comp. Phys. Commun. 182, 1183-1186 (2011). Please cite generously. *
#*                                                                                  *
#*                              Data obtained from COD                              *
#*                             Zr24O128C144H96C48   ()                              *
#*             Failed to get author information, No journal information             *
#************************************************************************************

&CONTROL
 calculation='scf'
 title='UiO-66 Erster Versuch'
! convergence criterion 1 meV = 3.675e-5 Hartree(a.u.)
!  etot_conv_thr = 3.6D-6 not used for single point ! one order of magnitude below over all conv criterion
 pseudo_dir = '/home/mehlhorn/pseudos/UiO-66_pbe-spn-kjpaw/'
/

&SYSTEM
  ibrav = 2
  A =   20.74650
  nat = 440
  ntyp = 4 ! from cif
! achtivation of DFT+U Hubbard correction?
  ecutwfc = 80
! Ry Trepte2017
  ecutrho = 480
! Kortus: 6xecutrho
  occupations = 'fixed'
! UiO-66 is defenetly an insulator
  input_dft = 'PBE'
! not PBEsol for method consistency with the molecular calculations
/

&ELECTRONS
  conv_thr = 3.6D-7
! one order of magnitude below the geometry optimization thershold
/

K_POINTS gamma
! should converge for MOFs

CELL_PARAMETERS {alat}
  1.000000000000000   0.000000000000000   0.000000000000000 
  0.000000000000000   1.000000000000000   0.000000000000000 
  0.000000000000000   0.000000000000000   1.000000000000000

ATOMIC_SPECIES
   H    1.00750   H.pbe-n-kjpaw_psl.1.0.0.UPF
  Zr   91.22400  Zr.pbe-spn-kjpaw_psl.1.0.0.UPF
   C   12.01060   C.pbe-n-kjpaw_psl.1.0.0.UPF
   O   15.99900   O.pbe-n-kjpaw_psl.1.0.0.UPF

ATOMIC_POSITIONS {crystal}
Zr   0.000000000000000   0.000000000000000   0.119750000000000 
Zr   0.000000000000000   0.000000000000000   0.880250000000000 
Zr   0.119750000000000   0.000000000000000   0.000000000000000 
Zr   0.880250000000000   0.000000000000000   0.000000000000000 
Zr   0.000000000000000   0.119750000000000   0.000000000000000 
Zr   0.000000000000000   0.880250000000000   0.000000000000000 
Zr   0.000000000000000   0.500000000000000   0.619750000000000 
Zr   0.000000000000000   0.500000000000000   0.380250000000000 
Zr   0.119750000000000   0.500000000000000   0.500000000000000 
Zr   0.880250000000000   0.500000000000000   0.500000000000000 
Zr   0.000000000000000   0.619750000000000   0.500000000000000 
Zr   0.000000000000000   0.380250000000000   0.500000000000000 
Zr   0.500000000000000   0.000000000000000   0.619750000000000 
Zr   0.500000000000000   0.000000000000000   0.380250000000000 
Zr   0.619750000000000   0.000000000000000   0.500000000000000 
Zr   0.380250000000000   0.000000000000000   0.500000000000000 
Zr   0.500000000000000   0.119750000000000   0.500000000000000 
Zr   0.500000000000000   0.880250000000000   0.500000000000000 
Zr   0.500000000000000   0.500000000000000   0.119750000000000 
Zr   0.500000000000000   0.500000000000000   0.880250000000000 
Zr   0.619750000000000   0.500000000000000   0.000000000000000 
Zr   0.380250000000000   0.500000000000000   0.000000000000000 
Zr   0.500000000000000   0.619750000000000   0.000000000000000 
Zr   0.500000000000000   0.380250000000000   0.000000000000000 
 O   0.932600000000000   0.932600000000000   0.067400000000000 
 O   0.067400000000000   0.067400000000000   0.932600000000000 
 O   0.067400000000000   0.067400000000000   0.067400000000000 
 O   0.932600000000000   0.932600000000000   0.932600000000000 
 O   0.067400000000000   0.932600000000000   0.932600000000000 
 O   0.932600000000000   0.067400000000000   0.067400000000000 
 O   0.932600000000000   0.067400000000000   0.932600000000000 
 O   0.067400000000000   0.932600000000000   0.067400000000000 
 O   0.932600000000000   0.432600000000000   0.567400000000000 
 O   0.067400000000000   0.567400000000000   0.432600000000000 
 O   0.067400000000000   0.567400000000000   0.567400000000000 
 O   0.932600000000000   0.432600000000000   0.432600000000000 
 O   0.067400000000000   0.432600000000000   0.432600000000000 
 O   0.932600000000000   0.567400000000000   0.567400000000000 
 O   0.932600000000000   0.567400000000000   0.432600000000000 
 O   0.067400000000000   0.432600000000000   0.567400000000000 
 O   0.432600000000000   0.932600000000000   0.567400000000000 
 O   0.567400000000000   0.067400000000000   0.432600000000000 
 O   0.567400000000000   0.067400000000000   0.567400000000000 
 O   0.432600000000000   0.932600000000000   0.432600000000000 
 O   0.567400000000000   0.932600000000000   0.432600000000000 
 O   0.432600000000000   0.067400000000000   0.567400000000000 
 O   0.432600000000000   0.067400000000000   0.432600000000000 
 O   0.567400000000000   0.932600000000000   0.567400000000000 
 O   0.432600000000000   0.432600000000000   0.067400000000000 
 O   0.567400000000000   0.567400000000000   0.932600000000000 
 O   0.567400000000000   0.567400000000000   0.067400000000000 
 O   0.432600000000000   0.432600000000000   0.932600000000000 
 O   0.567400000000000   0.432600000000000   0.932600000000000 
 O   0.432600000000000   0.567400000000000   0.067400000000000 
 O   0.432600000000000   0.567400000000000   0.932600000000000 
 O   0.567400000000000   0.432600000000000   0.067400000000000 
 O   0.094000000000000   0.000000000000000   0.170200000000000 
 O   0.906000000000000   0.000000000000000   0.829800000000000 
 O   0.906000000000000   0.000000000000000   0.170200000000000 
 O   0.094000000000000   0.000000000000000   0.829800000000000 
 O   0.170200000000000   0.094000000000000   0.000000000000000 
 O   0.829800000000000   0.906000000000000   0.000000000000000 
 O   0.170200000000000   0.906000000000000   0.000000000000000 
 O   0.829800000000000   0.094000000000000   0.000000000000000 
 O   0.000000000000000   0.170200000000000   0.094000000000000 
 O   0.000000000000000   0.829800000000000   0.906000000000000 
 O   0.000000000000000   0.170200000000000   0.906000000000000 
 O   0.000000000000000   0.829800000000000   0.094000000000000 
 O   0.000000000000000   0.094000000000000   0.829800000000000 
 O   0.000000000000000   0.906000000000000   0.170200000000000 
 O   0.000000000000000   0.906000000000000   0.829800000000000 
 O   0.000000000000000   0.094000000000000   0.170200000000000 
 O   0.094000000000000   0.170200000000000   0.000000000000000 
 O   0.906000000000000   0.829800000000000   0.000000000000000 
 O   0.906000000000000   0.170200000000000   0.000000000000000 
 O   0.094000000000000   0.829800000000000   0.000000000000000 
 O   0.170200000000000   0.000000000000000   0.906000000000000 
 O   0.829800000000000   0.000000000000000   0.094000000000000 
 O   0.170200000000000   0.000000000000000   0.094000000000000 
 O   0.829800000000000   0.000000000000000   0.906000000000000 
 O   0.094000000000000   0.500000000000000   0.670200000000000 
 O   0.906000000000000   0.500000000000000   0.329800000000000 
 O   0.906000000000000   0.500000000000000   0.670200000000000 
 O   0.094000000000000   0.500000000000000   0.329800000000000 
 O   0.170200000000000   0.594000000000000   0.500000000000000 
 O   0.829800000000000   0.406000000000000   0.500000000000000 
 O   0.170200000000000   0.406000000000000   0.500000000000000 
 O   0.829800000000000   0.594000000000000   0.500000000000000 
 O   0.000000000000000   0.670200000000000   0.594000000000000 
 O   0.000000000000000   0.329800000000000   0.406000000000000 
 O   0.000000000000000   0.670200000000000   0.406000000000000 
 O   0.000000000000000   0.329800000000000   0.594000000000000 
 O   0.000000000000000   0.594000000000000   0.329800000000000 
 O   0.000000000000000   0.406000000000000   0.670200000000000 
 O   0.000000000000000   0.406000000000000   0.329800000000000 
 O   0.000000000000000   0.594000000000000   0.670200000000000 
 O   0.094000000000000   0.670200000000000   0.500000000000000 
 O   0.906000000000000   0.329800000000000   0.500000000000000 
 O   0.906000000000000   0.670200000000000   0.500000000000000 
 O   0.094000000000000   0.329800000000000   0.500000000000000 
 O   0.170200000000000   0.500000000000000   0.406000000000000 
 O   0.829800000000000   0.500000000000000   0.594000000000000 
 O   0.170200000000000   0.500000000000000   0.594000000000000 
 O   0.829800000000000   0.500000000000000   0.406000000000000 
 O   0.594000000000000   0.000000000000000   0.670200000000000 
 O   0.406000000000000   0.000000000000000   0.329800000000000 
 O   0.406000000000000   0.000000000000000   0.670200000000000 
 O   0.594000000000000   0.000000000000000   0.329800000000000 
 O   0.670200000000000   0.094000000000000   0.500000000000000 
 O   0.329800000000000   0.906000000000000   0.500000000000000 
 O   0.670200000000000   0.906000000000000   0.500000000000000 
 O   0.329800000000000   0.094000000000000   0.500000000000000 
 O   0.500000000000000   0.170200000000000   0.594000000000000 
 O   0.500000000000000   0.829800000000000   0.406000000000000 
 O   0.500000000000000   0.170200000000000   0.406000000000000 
 O   0.500000000000000   0.829800000000000   0.594000000000000 
 O   0.500000000000000   0.094000000000000   0.329800000000000 
 O   0.500000000000000   0.906000000000000   0.670200000000000 
 O   0.500000000000000   0.906000000000000   0.329800000000000 
 O   0.500000000000000   0.094000000000000   0.670200000000000 
 O   0.594000000000000   0.170200000000000   0.500000000000000 
 O   0.406000000000000   0.829800000000000   0.500000000000000 
 O   0.406000000000000   0.170200000000000   0.500000000000000 
 O   0.594000000000000   0.829800000000000   0.500000000000000 
 O   0.670200000000000   0.000000000000000   0.406000000000000 
 O   0.329800000000000   0.000000000000000   0.594000000000000 
 O   0.670200000000000   0.000000000000000   0.594000000000000 
 O   0.329800000000000   0.000000000000000   0.406000000000000 
 O   0.594000000000000   0.500000000000000   0.170200000000000 
 O   0.406000000000000   0.500000000000000   0.829800000000000 
 O   0.406000000000000   0.500000000000000   0.170200000000000 
 O   0.594000000000000   0.500000000000000   0.829800000000000 
 O   0.670200000000000   0.594000000000000   0.000000000000000 
 O   0.329800000000000   0.406000000000000   0.000000000000000 
 O   0.670200000000000   0.406000000000000   0.000000000000000 
 O   0.329800000000000   0.594000000000000   0.000000000000000 
 O   0.500000000000000   0.670200000000000   0.094000000000000 
 O   0.500000000000000   0.329800000000000   0.906000000000000 
 O   0.500000000000000   0.670200000000000   0.906000000000000 
 O   0.500000000000000   0.329800000000000   0.094000000000000 
 O   0.500000000000000   0.594000000000000   0.829800000000000 
 O   0.500000000000000   0.406000000000000   0.170200000000000 
 O   0.500000000000000   0.406000000000000   0.829800000000000 
 O   0.500000000000000   0.594000000000000   0.170200000000000 
 O   0.594000000000000   0.670200000000000   0.000000000000000 
 O   0.406000000000000   0.329800000000000   0.000000000000000 
 O   0.406000000000000   0.670200000000000   0.000000000000000 
 O   0.594000000000000   0.329800000000000   0.000000000000000 
 O   0.670200000000000   0.500000000000000   0.906000000000000 
 O   0.329800000000000   0.500000000000000   0.094000000000000 
 O   0.670200000000000   0.500000000000000   0.094000000000000 
 O   0.329800000000000   0.500000000000000   0.906000000000000 
 C   0.202790000000000   0.000000000000000   0.202790000000000 
 C   0.797210000000000   0.000000000000000   0.797210000000000 
 C   0.797210000000000   0.000000000000000   0.202790000000000 
 C   0.202790000000000   0.000000000000000   0.797210000000000 
 C   0.202790000000000   0.202790000000000   0.000000000000000 
 C   0.797210000000000   0.797210000000000   0.000000000000000 
 C   0.202790000000000   0.797210000000000   0.000000000000000 
 C   0.797210000000000   0.202790000000000   0.000000000000000 
 C   0.000000000000000   0.202790000000000   0.202790000000000 
 C   0.000000000000000   0.797210000000000   0.797210000000000 
 C   0.000000000000000   0.202790000000000   0.797210000000000 
 C   0.000000000000000   0.797210000000000   0.202790000000000 
 C   0.202790000000000   0.500000000000000   0.702790000000000 
 C   0.797210000000000   0.500000000000000   0.297210000000000 
 C   0.797210000000000   0.500000000000000   0.702790000000000 
 C   0.202790000000000   0.500000000000000   0.297210000000000 
 C   0.202790000000000   0.702790000000000   0.500000000000000 
 C   0.797210000000000   0.297210000000000   0.500000000000000 
 C   0.202790000000000   0.297210000000000   0.500000000000000 
 C   0.797210000000000   0.702790000000000   0.500000000000000 
 C   0.000000000000000   0.702790000000000   0.702790000000000 
 C   0.000000000000000   0.297210000000000   0.297210000000000 
 C   0.000000000000000   0.702790000000000   0.297210000000000 
 C   0.000000000000000   0.297210000000000   0.702790000000000 
 C   0.702790000000000   0.000000000000000   0.702790000000000 
 C   0.297210000000000   0.000000000000000   0.297210000000000 
 C   0.297210000000000   0.000000000000000   0.702790000000000 
 C   0.702790000000000   0.000000000000000   0.297210000000000 
 C   0.702790000000000   0.202790000000000   0.500000000000000 
 C   0.297210000000000   0.797210000000000   0.500000000000000 
 C   0.702790000000000   0.797210000000000   0.500000000000000 
 C   0.297210000000000   0.202790000000000   0.500000000000000 
 C   0.500000000000000   0.202790000000000   0.702790000000000 
 C   0.500000000000000   0.797210000000000   0.297210000000000 
 C   0.500000000000000   0.202790000000000   0.297210000000000 
 C   0.500000000000000   0.797210000000000   0.702790000000000 
 C   0.702790000000000   0.500000000000000   0.202790000000000 
 C   0.297210000000000   0.500000000000000   0.797210000000000 
 C   0.297210000000000   0.500000000000000   0.202790000000000 
 C   0.702790000000000   0.500000000000000   0.797210000000000 
 C   0.702790000000000   0.702790000000000   0.000000000000000 
 C   0.297210000000000   0.297210000000000   0.000000000000000 
 C   0.702790000000000   0.297210000000000   0.000000000000000 
 C   0.297210000000000   0.702790000000000   0.000000000000000 
 C   0.500000000000000   0.702790000000000   0.202790000000000 
 C   0.500000000000000   0.297210000000000   0.797210000000000 
 C   0.500000000000000   0.702790000000000   0.797210000000000 
 C   0.500000000000000   0.297210000000000   0.202790000000000 
 C   0.267120000000000   0.000000000000000   0.185340000000000 
 C   0.732880000000000   0.000000000000000   0.814660000000000 
 C   0.732880000000000   0.000000000000000   0.185340000000000 
 C   0.267120000000000   0.000000000000000   0.814660000000000 
 C   0.185340000000000   0.267120000000000   0.000000000000000 
 C   0.814660000000000   0.732880000000000   0.000000000000000 
 C   0.185340000000000   0.732880000000000   0.000000000000000 
 C   0.814660000000000   0.267120000000000   0.000000000000000 
 C   0.000000000000000   0.185340000000000   0.267120000000000 
 C   0.000000000000000   0.814660000000000   0.732880000000000 
 C   0.000000000000000   0.185340000000000   0.732880000000000 
 C   0.000000000000000   0.814660000000000   0.267120000000000 
 C   0.000000000000000   0.267120000000000   0.814660000000000 
 C   0.000000000000000   0.732880000000000   0.185340000000000 
 C   0.000000000000000   0.732880000000000   0.814660000000000 
 C   0.000000000000000   0.267120000000000   0.185340000000000 
 C   0.267120000000000   0.185340000000000   0.000000000000000 
 C   0.732880000000000   0.814660000000000   0.000000000000000 
 C   0.732880000000000   0.185340000000000   0.000000000000000 
 C   0.267120000000000   0.814660000000000   0.000000000000000 
 C   0.185340000000000   0.000000000000000   0.732880000000000 
 C   0.814660000000000   0.000000000000000   0.267120000000000 
 C   0.185340000000000   0.000000000000000   0.267120000000000 
 C   0.814660000000000   0.000000000000000   0.732880000000000 
 C   0.267120000000000   0.500000000000000   0.685340000000000 
 C   0.732880000000000   0.500000000000000   0.314660000000000 
 C   0.732880000000000   0.500000000000000   0.685340000000000 
 C   0.267120000000000   0.500000000000000   0.314660000000000 
 C   0.185340000000000   0.767120000000000   0.500000000000000 
 C   0.814660000000000   0.232880000000000   0.500000000000000 
 C   0.185340000000000   0.232880000000000   0.500000000000000 
 C   0.814660000000000   0.767120000000000   0.500000000000000 
 C   0.000000000000000   0.685340000000000   0.767120000000000 
 C   0.000000000000000   0.314660000000000   0.232880000000000 
 C   0.000000000000000   0.685340000000000   0.232880000000000 
 C   0.000000000000000   0.314660000000000   0.767120000000000 
 C   0.000000000000000   0.767120000000000   0.314660000000000 
 C   0.000000000000000   0.232880000000000   0.685340000000000 
 C   0.000000000000000   0.232880000000000   0.314660000000000 
 C   0.000000000000000   0.767120000000000   0.685340000000000 
 C   0.267120000000000   0.685340000000000   0.500000000000000 
 C   0.732880000000000   0.314660000000000   0.500000000000000 
 C   0.732880000000000   0.685340000000000   0.500000000000000 
 C   0.267120000000000   0.314660000000000   0.500000000000000 
 C   0.185340000000000   0.500000000000000   0.232880000000000 
 C   0.814660000000000   0.500000000000000   0.767120000000000 
 C   0.185340000000000   0.500000000000000   0.767120000000000 
 C   0.814660000000000   0.500000000000000   0.232880000000000 
 C   0.767120000000000   0.000000000000000   0.685340000000000 
 C   0.232880000000000   0.000000000000000   0.314660000000000 
 C   0.232880000000000   0.000000000000000   0.685340000000000 
 C   0.767120000000000   0.000000000000000   0.314660000000000 
 C   0.685340000000000   0.267120000000000   0.500000000000000 
 C   0.314660000000000   0.732880000000000   0.500000000000000 
 C   0.685340000000000   0.732880000000000   0.500000000000000 
 C   0.314660000000000   0.267120000000000   0.500000000000000 
 C   0.500000000000000   0.185340000000000   0.767120000000000 
 C   0.500000000000000   0.814660000000000   0.232880000000000 
 C   0.500000000000000   0.185340000000000   0.232880000000000 
 C   0.500000000000000   0.814660000000000   0.767120000000000 
 C   0.500000000000000   0.267120000000000   0.314660000000000 
 C   0.500000000000000   0.732880000000000   0.685340000000000 
 C   0.500000000000000   0.732880000000000   0.314660000000000 
 C   0.500000000000000   0.267120000000000   0.685340000000000 
 C   0.767120000000000   0.185340000000000   0.500000000000000 
 C   0.232880000000000   0.814660000000000   0.500000000000000 
 C   0.232880000000000   0.185340000000000   0.500000000000000 
 C   0.767120000000000   0.814660000000000   0.500000000000000 
 C   0.685340000000000   0.000000000000000   0.232880000000000 
 C   0.314660000000000   0.000000000000000   0.767120000000000 
 C   0.685340000000000   0.000000000000000   0.767120000000000 
 C   0.314660000000000   0.000000000000000   0.232880000000000 
 C   0.767120000000000   0.500000000000000   0.185340000000000 
 C   0.232880000000000   0.500000000000000   0.814660000000000 
 C   0.232880000000000   0.500000000000000   0.185340000000000 
 C   0.767120000000000   0.500000000000000   0.814660000000000 
 C   0.685340000000000   0.767120000000000   0.000000000000000 
 C   0.314660000000000   0.232880000000000   0.000000000000000 
 C   0.685340000000000   0.232880000000000   0.000000000000000 
 C   0.314660000000000   0.767120000000000   0.000000000000000 
 C   0.500000000000000   0.685340000000000   0.267120000000000 
 C   0.500000000000000   0.314660000000000   0.732880000000000 
 C   0.500000000000000   0.685340000000000   0.732880000000000 
 C   0.500000000000000   0.314660000000000   0.267120000000000 
 C   0.500000000000000   0.767120000000000   0.814660000000000 
 C   0.500000000000000   0.232880000000000   0.185340000000000 
 C   0.500000000000000   0.232880000000000   0.814660000000000 
 C   0.500000000000000   0.767120000000000   0.185340000000000 
 C   0.767120000000000   0.685340000000000   0.000000000000000 
 C   0.232880000000000   0.314660000000000   0.000000000000000 
 C   0.232880000000000   0.685340000000000   0.000000000000000 
 C   0.767120000000000   0.314660000000000   0.000000000000000 
 C   0.685340000000000   0.500000000000000   0.732880000000000 
 C   0.314660000000000   0.500000000000000   0.267120000000000 
 C   0.685340000000000   0.500000000000000   0.267120000000000 
 C   0.314660000000000   0.500000000000000   0.732880000000000 
 C   0.151790000000000   0.000000000000000   0.151790000000000 
 C   0.848210000000000   0.000000000000000   0.848210000000000 
 C   0.848210000000000   0.000000000000000   0.151790000000000 
 C   0.151790000000000   0.000000000000000   0.848210000000000 
 C   0.151790000000000   0.151790000000000   0.000000000000000 
 C   0.848210000000000   0.848210000000000   0.000000000000000 
 C   0.151790000000000   0.848210000000000   0.000000000000000 
 C   0.848210000000000   0.151790000000000   0.000000000000000 
 C   0.000000000000000   0.151790000000000   0.151790000000000 
 C   0.000000000000000   0.848210000000000   0.848210000000000 
 C   0.000000000000000   0.151790000000000   0.848210000000000 
 C   0.000000000000000   0.848210000000000   0.151790000000000 
 C   0.151790000000000   0.500000000000000   0.651790000000000 
 C   0.848210000000000   0.500000000000000   0.348210000000000 
 C   0.848210000000000   0.500000000000000   0.651790000000000 
 C   0.151790000000000   0.500000000000000   0.348210000000000 
 C   0.151790000000000   0.651790000000000   0.500000000000000 
 C   0.848210000000000   0.348210000000000   0.500000000000000 
 C   0.151790000000000   0.348210000000000   0.500000000000000 
 C   0.848210000000000   0.651790000000000   0.500000000000000 
 C   0.000000000000000   0.651790000000000   0.651790000000000 
 C   0.000000000000000   0.348210000000000   0.348210000000000 
 C   0.000000000000000   0.651790000000000   0.348210000000000 
 C   0.000000000000000   0.348210000000000   0.651790000000000 
 C   0.651790000000000   0.000000000000000   0.651790000000000 
 C   0.348210000000000   0.000000000000000   0.348210000000000 
 C   0.348210000000000   0.000000000000000   0.651790000000000 
 C   0.651790000000000   0.000000000000000   0.348210000000000 
 C   0.651790000000000   0.151790000000000   0.500000000000000 
 C   0.348210000000000   0.848210000000000   0.500000000000000 
 C   0.651790000000000   0.848210000000000   0.500000000000000 
 C   0.348210000000000   0.151790000000000   0.500000000000000 
 C   0.500000000000000   0.151790000000000   0.651790000000000 
 C   0.500000000000000   0.848210000000000   0.348210000000000 
 C   0.500000000000000   0.151790000000000   0.348210000000000 
 C   0.500000000000000   0.848210000000000   0.651790000000000 
 C   0.651790000000000   0.500000000000000   0.151790000000000 
 C   0.348210000000000   0.500000000000000   0.848210000000000 
 C   0.348210000000000   0.500000000000000   0.151790000000000 
 C   0.651790000000000   0.500000000000000   0.848210000000000 
 C   0.651790000000000   0.651790000000000   0.000000000000000 
 C   0.348210000000000   0.348210000000000   0.000000000000000 
 C   0.651790000000000   0.348210000000000   0.000000000000000 
 C   0.348210000000000   0.651790000000000   0.000000000000000 
 C   0.500000000000000   0.651790000000000   0.151790000000000 
 C   0.500000000000000   0.348210000000000   0.848210000000000 
 C   0.500000000000000   0.651790000000000   0.848210000000000 
 C   0.500000000000000   0.348210000000000   0.151790000000000 
 H   0.278900000000000   0.000000000000000   0.141100000000000 
 H   0.721100000000000   0.000000000000000   0.858900000000000 
 H   0.721100000000000   0.000000000000000   0.141100000000000 
 H   0.278900000000000   0.000000000000000   0.858900000000000 
 H   0.141100000000000   0.278900000000000   0.000000000000000 
 H   0.858900000000000   0.721100000000000   0.000000000000000 
 H   0.141100000000000   0.721100000000000   0.000000000000000 
 H   0.858900000000000   0.278900000000000   0.000000000000000 
 H   0.000000000000000   0.141100000000000   0.278900000000000 
 H   0.000000000000000   0.858900000000000   0.721100000000000 
 H   0.000000000000000   0.141100000000000   0.721100000000000 
 H   0.000000000000000   0.858900000000000   0.278900000000000 
 H   0.000000000000000   0.278900000000000   0.858900000000000 
 H   0.000000000000000   0.721100000000000   0.141100000000000 
 H   0.000000000000000   0.721100000000000   0.858900000000000 
 H   0.000000000000000   0.278900000000000   0.141100000000000 
 H   0.278900000000000   0.141100000000000   0.000000000000000 
 H   0.721100000000000   0.858900000000000   0.000000000000000 
 H   0.721100000000000   0.141100000000000   0.000000000000000 
 H   0.278900000000000   0.858900000000000   0.000000000000000 
 H   0.141100000000000   0.000000000000000   0.721100000000000 
 H   0.858900000000000   0.000000000000000   0.278900000000000 
 H   0.141100000000000   0.000000000000000   0.278900000000000 
 H   0.858900000000000   0.000000000000000   0.721100000000000 
 H   0.278900000000000   0.500000000000000   0.641100000000000 
 H   0.721100000000000   0.500000000000000   0.358900000000000 
 H   0.721100000000000   0.500000000000000   0.641100000000000 
 H   0.278900000000000   0.500000000000000   0.358900000000000 
 H   0.141100000000000   0.778900000000000   0.500000000000000 
 H   0.858900000000000   0.221100000000000   0.500000000000000 
 H   0.141100000000000   0.221100000000000   0.500000000000000 
 H   0.858900000000000   0.778900000000000   0.500000000000000 
 H   0.000000000000000   0.641100000000000   0.778900000000000 
 H   0.000000000000000   0.358900000000000   0.221100000000000 
 H   0.000000000000000   0.641100000000000   0.221100000000000 
 H   0.000000000000000   0.358900000000000   0.778900000000000 
 H   0.000000000000000   0.778900000000000   0.358900000000000 
 H   0.000000000000000   0.221100000000000   0.641100000000000 
 H   0.000000000000000   0.221100000000000   0.358900000000000 
 H   0.000000000000000   0.778900000000000   0.641100000000000 
 H   0.278900000000000   0.641100000000000   0.500000000000000 
 H   0.721100000000000   0.358900000000000   0.500000000000000 
 H   0.721100000000000   0.641100000000000   0.500000000000000 
 H   0.278900000000000   0.358900000000000   0.500000000000000 
 H   0.141100000000000   0.500000000000000   0.221100000000000 
 H   0.858900000000000   0.500000000000000   0.778900000000000 
 H   0.141100000000000   0.500000000000000   0.778900000000000 
 H   0.858900000000000   0.500000000000000   0.221100000000000 
 H   0.778900000000000   0.000000000000000   0.641100000000000 
 H   0.221100000000000   0.000000000000000   0.358900000000000 
 H   0.221100000000000   0.000000000000000   0.641100000000000 
 H   0.778900000000000   0.000000000000000   0.358900000000000 
 H   0.641100000000000   0.278900000000000   0.500000000000000 
 H   0.358900000000000   0.721100000000000   0.500000000000000 
 H   0.641100000000000   0.721100000000000   0.500000000000000 
 H   0.358900000000000   0.278900000000000   0.500000000000000 
 H   0.500000000000000   0.141100000000000   0.778900000000000 
 H   0.500000000000000   0.858900000000000   0.221100000000000 
 H   0.500000000000000   0.141100000000000   0.221100000000000 
 H   0.500000000000000   0.858900000000000   0.778900000000000 
 H   0.500000000000000   0.278900000000000   0.358900000000000 
 H   0.500000000000000   0.721100000000000   0.641100000000000 
 H   0.500000000000000   0.721100000000000   0.358900000000000 
 H   0.500000000000000   0.278900000000000   0.641100000000000 
 H   0.778900000000000   0.141100000000000   0.500000000000000 
 H   0.221100000000000   0.858900000000000   0.500000000000000 
 H   0.221100000000000   0.141100000000000   0.500000000000000 
 H   0.778900000000000   0.858900000000000   0.500000000000000 
 H   0.641100000000000   0.000000000000000   0.221100000000000 
 H   0.358900000000000   0.000000000000000   0.778900000000000 
 H   0.641100000000000   0.000000000000000   0.778900000000000 
 H   0.358900000000000   0.000000000000000   0.221100000000000 
 H   0.778900000000000   0.500000000000000   0.141100000000000 
 H   0.221100000000000   0.500000000000000   0.858900000000000 
 H   0.221100000000000   0.500000000000000   0.141100000000000 
 H   0.778900000000000   0.500000000000000   0.858900000000000 
 H   0.641100000000000   0.778900000000000   0.000000000000000 
 H   0.358900000000000   0.221100000000000   0.000000000000000 
 H   0.641100000000000   0.221100000000000   0.000000000000000 
 H   0.358900000000000   0.778900000000000   0.000000000000000 
 H   0.500000000000000   0.641100000000000   0.278900000000000 
 H   0.500000000000000   0.358900000000000   0.721100000000000 
 H   0.500000000000000   0.641100000000000   0.721100000000000 
 H   0.500000000000000   0.358900000000000   0.278900000000000 
 H   0.500000000000000   0.778900000000000   0.858900000000000 
 H   0.500000000000000   0.221100000000000   0.141100000000000 
 H   0.500000000000000   0.221100000000000   0.858900000000000 
 H   0.500000000000000   0.778900000000000   0.141100000000000 
 H   0.778900000000000   0.641100000000000   0.000000000000000 
 H   0.221100000000000   0.358900000000000   0.000000000000000 
 H   0.221100000000000   0.641100000000000   0.000000000000000 
 H   0.778900000000000   0.358900000000000   0.000000000000000 
 H   0.641100000000000   0.500000000000000   0.721100000000000 
 H   0.358900000000000   0.500000000000000   0.278900000000000 
 H   0.641100000000000   0.500000000000000   0.278900000000000 