

&CONTROL
 calculation='vc-relax'
 title='UiO-66-NH2-dehydrox GeomOpt'
! convergence criterion 1 meV = 3.675e-5 Hartree(a.u.)
 etot_conv_thr = 3.6D-6 ! one order of magnitude below over all conv criterion
 forc_conv_thr = 1.0D-5 ! see optimization of Ba(BH4)2
 pseudo_dir = '/home/mehlhorn/pseudos/UiO-66_pbe-spn-kjpaw/'
/

&SYSTEM
  ibrav = 0
  A =   14.56327
  nat = 120
  ntyp = 5 ! from cif
! activation of DFT+U Hubbard correction?
  ecutwfc = 80 ! Ry Trepte2017
  ecutrho = 480 ! Kortus: 6xecutrho
  occupations = 'fixed' ! band gap Valenzano2011
  input_dft = 'PBE' ! not PBEsol for method consistency with the molecular calculations
/

&ELECTRONS
  conv_thr = 1D-8 ! one order of magnitude below the geometry optimization thershold
/

&IONS
  ion_dynamics = 'bfgs' ! understood algorithm
/

&CELL
  cell_dynamics = 'bfgs'
/

K_POINTS gamma ! should converge for MOFs

ATOMIC_SPECIES
   H    1.00750   H.pbe-kjpaw_psl.1.0.0.UPF
  Zr   91.22400  Zr.pbe-spn-kjpaw_psl.1.0.0.UPF
   C   12.01060   C.pbe-n-kjpaw_psl.1.0.0.UPF
   O   15.99900   O.pbe-n-kjpaw_psl.1.0.0.UPF ! Trepte2017
   N   14.00650   N.pbe-n-kjpaw_psl.1.0.0.UPF

! modified UiO-66-dehydrox deviated from optimized Valenzano input

CELL_PARAMETERS {alat}
  1.000000000000000   0.000000000000000   0.000000000000000
  0.474325830603093   0.880349366117047   0.000000000000000
  0.474325830603093   0.283229416209550   0.833544302491645

ATOMIC_POSITIONS {crystal}
Zr   0.873024000000000   0.118815000000000   0.122357000000000
Zr   0.122357000000000   0.873024000000000   0.118815000000000
Zr   0.118815000000000   0.122357000000000   0.873024000000000
Zr   0.881184000000000   0.877643000000000   0.126976000000000
Zr   0.126976000000000   0.881184000000000   0.877643000000000
Zr   0.877643000000000   0.126976000000000   0.881184000000000
 O   0.919264000000000   0.261614000000000   0.084978000000000
 O   0.084978000000000   0.919264000000000   0.261614000000000
 O   0.261614000000000   0.084978000000000   0.919264000000000
 O   0.915022000000000   0.080737000000000   0.738387000000000
 O   0.080737000000000   0.738387000000000   0.915022000000000
 O   0.738387000000000   0.915022000000000   0.080737000000000
 O   0.917865000000000   0.755020000000000   0.053514000000000
 O   0.755020000000000   0.053514000000000   0.917865000000000
 O   0.244980000000000   0.946486000000000   0.082135000000000
 O   0.053514000000000   0.917865000000000   0.755020000000000
 O   0.836190000000000   0.044492000000000   0.047834000000000
 O   0.047834000000000   0.836190000000000   0.044492000000000
 O   0.082135000000000   0.244980000000000   0.946486000000000
 O   0.946486000000000   0.082135000000000   0.244980000000000
 O   0.266444000000000   0.733922000000000   0.077213000000000
 O   0.077213000000000   0.266444000000000   0.733922000000000
 O   0.726719000000000   0.258858000000000   0.084007000000000
 O   0.922787000000000   0.733556000000000   0.266078000000000
 O   0.266078000000000   0.922787000000000   0.733556000000000
 O   0.733556000000000   0.266078000000000   0.922787000000000
 O   0.044492000000000   0.047834000000000   0.836190000000000
 O   0.741142000000000   0.915993000000000   0.273281000000000
 O   0.084007000000000   0.726719000000000   0.258858000000000
 O   0.955508000000000   0.952166000000000   0.163810000000000
 O   0.952166000000000   0.163810000000000   0.955508000000000
 O   0.163810000000000   0.955508000000000   0.952166000000000
 O   0.915993000000000   0.273281000000000   0.741142000000000
 O   0.258858000000000   0.084007000000000   0.726719000000000
 O   0.273281000000000   0.741142000000000   0.915993000000000
 O   0.733922000000000   0.077213000000000   0.266444000000000
 N   0.840113000000000   0.432379000000000   0.127856000000000
 N   0.127856000000000   0.840113000000000   0.432379000000000
 N   0.432379000000000   0.127856000000000   0.840113000000000
 N   0.846671000000000   0.591268000000000   0.422366000000000
 N   0.591268000000000   0.422366000000000   0.846671000000000
 N   0.422366000000000   0.846671000000000   0.591268000000000
 C   0.000106000000000   0.704359000000000   0.987837000000000
 C   0.987837000000000   0.000106000000000   0.704359000000000
 C   0.012163000000000  -0.000106000000000   0.295641000000000
 C   0.704359000000000   0.987837000000000   0.000106000000000
 C  -0.000200000000000   0.401550000000000   0.005208000000000
 C   0.401550000000000   0.005208000000000  -0.000200000000000
 C   0.295641000000000   0.012163000000000  -0.000106000000000
 C  -0.000106000000000   0.295641000000000   0.012163000000000
 C   0.909708000000000   0.462781000000000   0.072166000000000
 C   0.072166000000000   0.909708000000000   0.462781000000000
 C   0.090292000000000   0.537219000000000   0.927834000000000
 C   0.994792000000000   0.000200000000000   0.598450000000000
 C   0.000200000000000   0.598450000000000   0.994792000000000
 C   0.598450000000000   0.994792000000000   0.000200000000000
 C   0.005208000000000  -0.000200000000000   0.401550000000000
 C   0.933059000000000   0.090168000000000   0.439436000000000
 C   0.309420000000000   0.697216000000000   0.996655000000000
 C   0.697216000000000   0.996655000000000   0.309420000000000
 C   0.996655000000000   0.309420000000000   0.697216000000000
 C   0.591840000000000   0.404318000000000   0.001915000000000
 C   0.003345000000000   0.690581000000000   0.302784000000000
 C   0.690581000000000   0.302784000000000   0.003345000000000
 C   0.927834000000000   0.090292000000000   0.537219000000000
 C   0.560564000000000   0.066941000000000   0.909832000000000
 C   0.439436000000000   0.933059000000000   0.090168000000000
 C   0.090168000000000   0.439436000000000   0.933059000000000
 C   0.066941000000000   0.909832000000000   0.560564000000000
 C   0.537219000000000   0.927834000000000   0.090292000000000
 C   0.909832000000000   0.560564000000000   0.066941000000000
 C   0.462781000000000   0.072166000000000   0.909708000000000
 C   0.447960000000000   0.088493000000000   0.540563000000000
 C   0.911507000000000   0.459437000000000   0.552040000000000
 C   0.552040000000000   0.911507000000000   0.459437000000000
 C   0.913414000000000   0.550629000000000   0.457035000000000
 C   0.457035000000000   0.913414000000000   0.550629000000000
 C   0.595682000000000   0.998085000000000   0.408160000000000
 C   0.550629000000000   0.457035000000000   0.913414000000000
 C   0.459437000000000   0.552040000000000   0.911507000000000
 C   0.088493000000000   0.540563000000000   0.447960000000000
 C   0.540563000000000   0.447960000000000   0.088493000000000
 C   0.001915000000000   0.591840000000000   0.404318000000000
 C   0.449371000000000   0.542965000000000   0.086586000000000
 C   0.542965000000000   0.086586000000000   0.449371000000000
 C   0.086586000000000   0.449371000000000   0.542965000000000
 C   0.998085000000000   0.408160000000000   0.595682000000000
 C   0.404318000000000   0.001915000000000   0.591840000000000
 C   0.408160000000000   0.595682000000000   0.998085000000000
 C   0.302784000000000   0.003345000000000   0.690581000000000
 H   0.159887000000000   0.567621000000000   0.872144000000000
 H   0.872144000000000   0.159887000000000   0.567621000000000
 H   0.840115000000000   0.609192000000000   0.117990000000000
 H   0.159885000000000   0.390808000000000   0.882010000000000
 H   0.567621000000000   0.872144000000000   0.159887000000000
 H   0.882010000000000   0.159885000000000   0.390808000000000
 H   0.609192000000000   0.117990000000000   0.840115000000000
 H   0.390808000000000   0.882010000000000   0.159885000000000
 H   0.117990000000000   0.840115000000000   0.609192000000000
 H   0.577634000000000   0.153329000000000   0.408732000000000
 H   0.153329000000000   0.408732000000000   0.577634000000000
 H   0.408732000000000   0.577634000000000   0.153329000000000
 H   0.573394000000000   0.406288000000000   0.156681000000000
 H   0.156681000000000   0.573394000000000   0.406288000000000
 H   0.426606000000000   0.593712000000000   0.843319000000000
 H   0.406288000000000   0.156681000000000   0.573394000000000
 H   0.593712000000000   0.843319000000000   0.426606000000000
 H   0.841181000000000   0.360902000000000   0.130670000000000
 H   0.774190000000000   0.475525000000000   0.176940000000000
 H   0.843319000000000   0.426606000000000   0.593712000000000
 H   0.849162000000000   0.657807000000000   0.353035000000000
 H   0.353035000000000   0.849162000000000   0.657807000000000
 H   0.781983000000000   0.562600000000000   0.459389000000000
 H   0.176940000000000   0.774190000000000   0.475525000000000
 H   0.657807000000000   0.353035000000000   0.849162000000000
 H   0.475525000000000   0.176940000000000   0.774190000000000
 H   0.130670000000000   0.841181000000000   0.360902000000000
 H   0.360902000000000   0.130670000000000   0.841181000000000
 H   0.562600000000000   0.459389000000000   0.781983000000000
 H   0.459389000000000   0.781983000000000   0.562600000000000
