

&CONTROL
 calculation='vc-relax'
 title='UiO-66-NH2-dehydrox GeomOpt'
! convergence criterion 1 meV = 3.675e-5 Hartree(a.u.)
 etot_conv_thr = 3.6D-6 ! one order of magnitude below over all conv criterion
 forc_conv_thr = 1.0D-5 ! see optimization of Ba(BH4)2
 nstep = 750
 pseudo_dir = '/home/mehlhorn/pseudos/UiO-66_pbe-spn-kjpaw/'
/

&SYSTEM
  ibrav = 0
  celldm(1) = 27.52059178 ! from previous run
  nat = 120
  ntyp = 5 ! from cif
! activation of DFT+U Hubbard correction?
  ecutwfc = 80 ! Ry Trepte2017
  ecutrho = 480 ! Kortus: 6xecutrho
  occupations = 'fixed' ! band gap Valenzano2011
  input_dft = 'PBE' ! not PBEsol for method consistency with the molecular calculations
/

&ELECTRONS
  conv_thr = 1D-8 ! one order of magnitude below the geometry optimization thershold
/

&IONS
  ion_dynamics = 'bfgs' ! understood algorithm
/

&CELL
  cell_dynamics = 'bfgs'
/

K_POINTS gamma ! should converge for MOFs

ATOMIC_SPECIES
   H    1.00750   H.pbe-kjpaw_psl.1.0.0.UPF
  Zr   91.22400  Zr.pbe-spn-kjpaw_psl.1.0.0.UPF
   C   12.01060   C.pbe-n-kjpaw_psl.1.0.0.UPF
   O   15.99900   O.pbe-n-kjpaw_psl.1.0.0.UPF ! Trepte2017
   N   14.00650   N.pbe-n-kjpaw_psl.1.0.0.UPF

! modified UiO-66-dehydrox deviated from optimized Valenzano input

CELL_PARAMETERS (alat)
   1.001427581  -0.000248880  -0.000176153
   0.474783870   0.881724025  -0.000176252
   0.474785645   0.283503834   0.834905317

ATOMIC_POSITIONS (crystal)
Zr               0.8737609821        0.1195742732        0.1232019889
Zr               0.1232029624        0.8737608157        0.1195749190
Zr               0.1195737757        0.1232019234        0.8737611601
Zr               0.8821735146        0.8800625904        0.1265995683
Zr               0.1265998883        0.8821724887        0.8800619427
Zr               0.8800612029        0.1266003415        0.8821724152
O                0.9220100553        0.2594868408        0.0859777796
O                0.0859798919        0.9220080395        0.2594865382
O                0.2594865863        0.0859810414        0.9220066488
O                0.9153123038        0.0840577600        0.7387288924
O                0.0840576216        0.7387289891        0.9153136525
O                0.7387299858        0.9153098098        0.0840623412
O                0.9192457234        0.7592533555        0.0499496634
O                0.7592523155        0.0499451925        0.9192490895
O                0.2494325588        0.9447803714        0.0818283159
O                0.0499492391        0.9192465779        0.7592526969
O                0.8361999196        0.0465325929        0.0486802643
O                0.0486789268        0.8362009530        0.0465327983
O                0.0818309537        0.2494326068        0.9447777917
O                0.9447788806        0.0818290738        0.2494330724
O                0.2653534125        0.7330633678        0.0813573501
O                0.0813584080        0.2653531144        0.7330636476
O                0.7291823096        0.2629657522        0.0805207699
O                0.9220370257        0.7361029741        0.2652174678
O                0.2652190409        0.9220369928        0.7361022769
O                0.7361019975        0.2652189969        0.9220379737
O                0.0465323956        0.0486789268        0.8362011796
O                0.7429963175        0.9190000322        0.2728281248
O                0.0805189767        0.7291816554        0.2629670504
O                0.9563202299        0.9541475029        0.1633019011
O                0.9541475504        0.1633027276        0.9563197050
O                0.1633017894        0.9563213749        0.9541476119
O                0.9190035358        0.2728300724        0.7429945504
O                0.2629661744        0.0805191710        0.7291830573
O                0.2728290510        0.7429954770        0.9190012524
O                0.7330626779        0.0813558090        0.2653543714
N                0.8161610645        0.4351173430        0.1517098222
N                0.1517135756        0.8161544611        0.4351257013
N                0.4351220677        0.1517132583        0.8161548259
N                0.8172088236        0.5966661938        0.4297798934
N                0.5966726918        0.4297733665        0.8172144146
N                0.4297802649        0.8172124417        0.5966655101
C                0.0020332669        0.7065507488        0.9864486534
C                0.9864497576        0.0020314069        0.7065513982
C                0.0123065946        0.0006259756        0.2981837107
C                0.7065515086        0.9864553135        0.0020244903
C               -0.0026584262        0.4030418710        0.0085662508
C                0.4030415388        0.0085704154       -0.0026631510
C                0.2981835597        0.0123062958        0.0006268134
C                0.0006248502        0.2981835547        0.0123077133
C                0.9066674131        0.4662380709        0.0763314060
C                0.0763285932        0.9066713615        0.4662359485
C                0.0912209757        0.5384351038        0.9272135185
C                0.9937683661        0.0017009644        0.6008616448
C                0.0016947266        0.6008621414        0.9937728492
C                0.6008622298        0.9937668335        0.0017022184
C                0.0085692806       -0.0026621425        0.4030424948
C                0.9355695440        0.0876249059        0.4415738129
C                0.3086293944        0.6975323828        1.0000292510
C                0.6975326028        1.0000325630        0.3086288430
C                1.0000231111        0.3086283628        0.6975339288
C                0.5943024163        0.4062671542       -0.0029614873
C                0.0008527287        0.6918258273        0.3059488808
C                0.6918253144        0.3059492470        0.0008486321
C                0.9272166504        0.0912173628        0.5384348296
C                0.5650012648        0.0662024792        0.9117261381
C                0.4415745316        0.9355692513        0.0876256989
C                0.0876229538        0.4415734546        0.9355709148
C                0.0662021878        0.9117264637        0.5650019680
C                0.5384333866        0.9272174473        0.0912168418
C                0.9117329423        0.5650016126        0.0661971150
C                0.4662376348        0.0763278491        0.9066723840
C                0.4483609339        0.0852916598        0.5418117941
C                0.9130177647        0.4568379590        0.5564112223
C                0.5564125567        0.9130235153        0.4568356508
C                0.9080009394        0.5507266166        0.4618774671
C                0.4618760187        0.9079969201        0.5507277822
C                0.5963088120        1.0006301411        0.4073528864
C                0.5507246817        0.4618794124        0.9079977498
C                0.4568376764        0.5564107712        0.9130234026
C                0.0852936466        0.5418083492        0.4483646932
C                0.5418085920        0.4483641990        0.0852924229
C               -0.0029649962        0.5943026521        0.4062681007
C                0.4501961181        0.5415145258        0.0885220600
C                0.5415173838        0.0885223833        0.4501930113
C                0.0885186896        0.4501956669        0.5415151047
C                1.0006361457        0.4073512483        0.5963095464
C                0.4062686147       -0.0029611375        0.5943007478
C                0.4073518093        0.5963098825        1.0006316710
C                0.3059487766        0.0008478367        0.6918262008
H                0.1613670119        0.5673013844        0.8706511086
H                0.8706505864        0.1613684521        0.5673013168
H                0.8430624301        0.6148978899        0.1164731791
H                0.1559080365        0.3914508347        0.8854533849
H                0.5673006498        0.8706502340        0.1613692040
H                0.8854538222        0.1559074158        0.3914509014
H                0.6148976695        0.1164718024        0.8430639299
H                0.3914500081        0.8854548089        0.1559069767
H                0.1164722986        0.8430636947        0.6148973479
H                0.5726338867        0.1574131191        0.4107564138
H                0.1574151416        0.4107552787        0.5726342803
H                0.4107564669        0.5726341661        0.1574145687
H                0.5758950341        0.4038350221        0.1526671571
H                0.1526656251        0.5758948579        0.4038360455
H                0.4225005027        0.5999178771        0.8458159387
H                0.4038359198        0.1526664203        0.5758944939
H                0.5999177568        0.8458159119        0.4225004038
H                0.8087262451        0.3699978926        0.1503263725
H                0.7473990793        0.4933829866        0.1794637465
H                0.8458165053        0.4225013389        0.5999168905
H                0.8191551430        0.6571658839        0.3560369884
H                0.3560373833        0.8191550930        0.6571663008
H                0.7664780916        0.5521456520        0.4626963148
H                0.1794620722        0.7474027446        0.4933797961
H                0.6571631833        0.3560411279        0.8191549874
H                0.4933810305        0.1794627200        0.7474016186
H                0.1503256007        0.8087257150        0.3699955033
H                0.3699971713        0.1503260270        0.8087258035
H                0.5521420678        0.4626993978        0.7664753015
H                0.4626978480        0.7664767215        0.5521445026
