

&CONTROL
 calculation='vc-relax'
 title='UiO-66-dehydrox GeomOpt'
! convergence criterion 1 meV = 3.675e-5 Hartree(a.u.)
 etot_conv_thr = 3.6D-6 ! one order of magnitude below over all conv criterion
 forc_conv_thr = 1.0D-5 ! see optimization of Ba(BH4)2
 nstep = 750 ! should run about 15 h
 pseudo_dir = '/home/mehlhorn/pseudos/UiO-66_pbe-spn-kjpaw/'
/

&SYSTEM
  ibrav = 0
  celldm(1) = 27.59009591 ! from previous run
  nat = 108
  ntyp = 4 ! from cif
! activation of DFT+U Hubbard correction?
  ecutwfc = 80 ! Ry Trepte2017
  ecutrho = 480 ! Kortus: 6xecutrho
  occupations = 'fixed' ! band gap Valenzano2011
  input_dft = 'PBE' ! not PBEsol for method consistency with the molecular calculations
/

&ELECTRONS
  conv_thr = 1D-8 ! one order of magnitude below the geometry optimization thershold
/

&IONS
  ion_dynamics = 'bfgs' ! understood algorithm
/

&CELL
  cell_dynamics = 'bfgs'
/

K_POINTS gamma ! should converge for MOFs

ATOMIC_SPECIES
   H    1.00750   H.pbe-kjpaw_psl.1.0.0.UPF
  Zr   91.22400  Zr.pbe-spn-kjpaw_psl.1.0.0.UPF
   C   12.01060   C.pbe-n-kjpaw_psl.1.0.0.UPF
   O   15.99900   O.pbe-n-kjpaw_psl.1.0.0.UPF ! Trepte2017

! primitive cell from Valenzanos CRYSTAL input

CELL_PARAMETERS (alat)
   0.997641308   0.000086678   0.000061790
   0.473330308   0.878207098   0.000062092
   0.473330068   0.282618143   0.831489943

ATOMIC_POSITIONS (crystal)
Zr               0.8730099225        0.1189798229        0.1221855116
Zr               0.1269900775        0.8810191771        0.8778144884
Zr               0.1221863703        0.8730096410        0.1189792275
Zr               0.8778136297        0.1269903590        0.8810197725
Zr               0.1189792255        0.1221858162        0.8730092783
Zr               0.8810197745        0.8778141838        0.1269907217
O                0.9195926067        0.2615030774        0.0847363834
O                0.0804073933        0.7384969226        0.9152636166
O                0.0847369548        0.9195910388        0.2615036670
O                0.9152630452        0.0804089612        0.7384963330
O                0.2615036338        0.0847370665        0.9195904270
O                0.7384963662        0.9152629335        0.0804095730
O                0.7547303508        0.0540604143        0.9177479573
O                0.2452696492        0.9459395857        0.0822520427
O                0.9177469220        0.7547296368        0.0540625927
O                0.0822530780        0.2452703632        0.9459374073
O                0.0540617047        0.9177479592        0.7547297018
O                0.9459382953        0.0822520408        0.2452702982
O                0.2663817933        0.9222946315        0.7338095314
O                0.7336182067        0.0777053685        0.2661904686
O                0.7338091953        0.2663812094        0.9222960418
O                0.2661908047        0.7336187906        0.0777039582
O                0.9222964937        0.7338096380        0.2663812557
O                0.0777035063        0.2661903620        0.7336187443
O                0.0835432954        0.7269646913        0.2590472950
O                0.9164567046        0.2730353087        0.7409527050
O                0.2590469254        0.0835413352        0.7269649321
O                0.7409530746        0.9164586648        0.2730350679
O                0.7269648261        0.2590481491        0.0835417307
O                0.2730351739        0.7409518509        0.9164582693
O                0.8362121018        0.0446449769        0.0476502792
O                0.1637878982        0.9553550231        0.9523497208
O                0.0476504254        0.8362114030        0.0446453050
O                0.9523495746        0.1637885970        0.9553546950
O                0.0446441682        0.0476498255        0.8362129484
O                0.9553558318        0.9523501745        0.1637870516
C                0.6969898725        0.9971123321        0.3091840395
C                0.3030101275        0.0028876679        0.6908159605
C                0.3091839498        0.6969896922        0.9971110924
C                0.6908160502        0.3030103078        0.0028889076
C                0.9971114030        0.3091841791        0.6969895033
C                0.0028885970        0.6908158209        0.3030104967
C               -0.0000764562        0.7042698362        0.9881981981
C                1.0000764562        0.2957301638        0.0118018019
C                0.9881981397       -0.0000757243        0.7042694593
C                0.0118018603        1.0000757243        0.2957305407
C                0.7042699248        0.9881978689       -0.0000760455
C                0.2957300752        0.0118021311        1.0000760455
C                0.9998688526        0.4016195710        0.0050009141
C                0.0001311474        0.5983804290        0.9949990859
C                0.0050014605        0.9998676480        0.4016199216
C                0.9949985395        0.0001323520        0.5983800784
C                0.4016197794        0.0050018635        0.9998676259
C                0.5983802206        0.9949981365        0.0001323741
C                0.4044603391        0.0016330269        0.5919897706
C                0.5955396609        0.9983669731        0.4080102294
C                0.5919896507        0.4044607883        0.0016337542
C                0.4080103493        0.5955392117        0.9983662458
C                0.0016345397        0.5919899217        0.4044604658
C                0.9983654603        0.4080100783        0.5955395342
C                0.9098212474        0.4626213773        0.0722088974
C                0.0901787526        0.5373786227        0.9277911026
C                0.0722076654        0.9098208449        0.4626223004
C                0.9277923346        0.0901791551        0.5373776996
C                0.4626224305        0.0722073272        0.9098205281
C                0.5373775695        0.9277926728        0.0901794719
C                0.5603371035        0.0671970819        0.9098710180
C                0.4396628965        0.9328029181        0.0901289820
C                0.9098720546        0.5603353289        0.0671984298
C                0.0901279454        0.4396646711        0.9328015702
C                0.0671978068        0.9098712780        0.5603364233
C                0.9328021932        0.0901287220        0.4396635767
C                0.4577250424        0.9128626547        0.5511018196
C                0.5422749576        0.0871373453        0.4488981804
C                0.5511029097        0.4577248915        0.9128622013
C                0.4488970903        0.5422751085        0.0871377987
C                0.9128625271        0.5511028704        0.4577242384
C                0.0871374729        0.4488971296        0.5422757616
C                0.0887531654        0.5402457185        0.4474146532
C                0.9112468346        0.4597542815        0.5525853468
C                0.4474138894        0.0887531551        0.5402462298
C                0.5525861106        0.9112468449        0.4597537702
C                0.5402460063        0.4474135867        0.0887533832
C                0.4597539937        0.5525864133        0.9112466168
H                0.5921025576        0.4236121339        0.8456836822
H                0.4078974424        0.5763878661        0.1543163178
H                0.8456845750        0.5921027096        0.4236107055
H                0.1543154250        0.4078972904        0.5763892945
H                0.4236120349        0.8456837002        0.5921011352
H                0.5763879651        0.1543162998        0.4078988648
H                0.5728447234        0.4052960130        0.1571382071
H                0.4271552766        0.5947039870        0.8428617929
H                0.1571384170        0.5728441972        0.4052978628
H                0.8428615830        0.4271558028        0.5947021372
H                0.4052962056        0.1571373385        0.5728456696
H                0.5947037944        0.8428626615        0.4271543304
H                0.1279328836        0.8403151748        0.4320927837
H                0.8720671164        0.1596848252        0.5679072163
H                0.4320930966        0.1279319526        0.8403147330
H                0.5679069034        0.8720680474        0.1596852670
H                0.8403169118        0.4320904696        0.1279343908
H                0.1596830882        0.5679095304        0.8720656092
H                0.1184463599        0.8401879452        0.6087863156
H                0.8815536401        0.1598120548        0.3912136844
H                0.6087872743        0.1184451323        0.8401877242
H                0.3912127257        0.8815548677        0.1598122758
H                0.8401883763        0.6087848641        0.1184481496
H                0.1598116237        0.3912151359        0.8815518504
