

&CONTROL
 calculation='scf'
 title='UiO-66-dehydrox scf for diel'
! convergence criterion 1 meV = 3.675e-5 Hartree(a.u.)
 nstep = 750 ! should run about 15 h
 pseudo_dir = '/home/mehlhorn/pseudos/UiO-66_pbe-spn-kjpaw/'
/

&SYSTEM
  ibrav = 5 ! generated by cif2qe
  celldm(1) =   27.52505921184764
  celldm(4) =    0.47452620857799
  nat = 108
  ntyp = 4
! activation of DFT+U Hubbard correction?
  ecutwfc = 150 ! convergencetest
  ecutrho = 900 ! Kortus: 6xecutrho
  occupations = 'fixed' ! band gap Valenzano2011
  input_dft = 'PBE' ! not PBEsol for method consistency with the molecular calculations
/

&ELECTRONS
  conv_thr = 1D-10 ! two ordes of magnitude below usual 1D-8
/



K_POINTS automatic ! gamma point without tricks
1 1 1 0 0 0


ATOMIC_SPECIES
   H    1.00750   H.pbe-kjpaw_psl.1.0.0.UPF
  Zr   91.22400  Zr.pbe-spn-kjpaw_psl.1.0.0.UPF
   C   12.01060   C.pbe-n-kjpaw_psl.1.0.0.UPF
   O   15.99900   O.pbe-n-kjpaw_psl.1.0.0.UPF ! Trepte2017

! primitive cell from Geometryoptimization calcfD-3


ATOMIC_POSITIONS crystal
 C      0.49711200000000      0.19699000000000      0.80918500000000
 C      0.50288800000000      0.80301000000000      0.19081500000000
 C      0.80918500000000      0.49711200000000      0.19699000000000
 C      0.19081500000000      0.50288800000000      0.80301000000000
 C      0.19699000000000      0.80918500000000      0.49711200000000
 C      0.80301000000000      0.19081500000000      0.50288800000000
 C      0.20427000000000      0.49992500000000      0.48819700000000
 C      0.79573000000000      0.50007500000000      0.51180300000000
 C      0.48819700000000      0.20427000000000      0.49992500000000
 C      0.51180300000000      0.79573000000000      0.50007500000000
 C      0.49992500000000      0.48819700000000      0.20427000000000
 C      0.50007500000000      0.51180300000000      0.79573000000000
 C      0.90162000000000      0.49987000000000      0.50500200000000
 C      0.09838000000000      0.50013000000000      0.49499800000000
 C      0.50500200000000      0.90162000000000      0.49987000000000
 C      0.49499800000000      0.09838000000000      0.50013000000000
 C      0.49987000000000      0.50500200000000      0.90162000000000
 C      0.50013000000000      0.49499800000000      0.09838000000000
 C      0.50163000000000      0.90446100000000      0.09199000000000
 C      0.49837000000000      0.09553900000000      0.90801000000000
 C      0.09199000000000      0.50163000000000      0.90446100000000
 C      0.90801000000000      0.49837000000000      0.09553900000000
 C      0.90446100000000      0.09199000000000      0.50163000000000
 C      0.09553900000000      0.90801000000000      0.49837000000000
 C      0.96262000000000      0.40982100000000      0.57221000000000
 C      0.03738000000000      0.59017900000000      0.42779000000000
 C      0.57221000000000      0.96262000000000      0.40982100000000
 C      0.42779000000000      0.03738000000000      0.59017900000000
 C      0.40982100000000      0.57221000000000      0.96262000000000
 C      0.59017900000000      0.42779000000000      0.03738000000000
 C      0.56719700000000      0.06033800000000      0.40987100000000
 C      0.43280300000000      0.93966200000000      0.59012900000000
 C      0.40987100000000      0.56719700000000      0.06033800000000
 C      0.59012900000000      0.43280300000000      0.93966200000000
 C      0.06033800000000      0.40987100000000      0.56719700000000
 C      0.93966200000000      0.59012900000000      0.43280300000000
 C      0.41286200000000      0.95772500000000      0.05110300000000
 C      0.58713800000000      0.04227500000000      0.94889700000000
 C      0.05110300000000      0.41286200000000      0.95772500000000
 C      0.94889700000000      0.58713800000000      0.04227500000000
 C      0.95772500000000      0.05110300000000      0.41286200000000
 C      0.04227500000000      0.94889700000000      0.58713800000000
 C      0.04025000000000      0.58875000000000      0.94741500000000
 C      0.95975000000000      0.41125000000000      0.05258500000000
 C      0.94741500000000      0.04025000000000      0.58875000000000
 C      0.05258500000000      0.95975000000000      0.41125000000000
 C      0.58875000000000      0.94741500000000      0.04025000000000
 C      0.41125000000000      0.05258500000000      0.95975000000000
 H      0.92361200000000      0.09210300000000      0.34568400000000
 H      0.07638800000000      0.90789700000000      0.65431600000000
 H      0.34568400000000      0.92361200000000      0.09210300000000
 H      0.65431600000000      0.07638800000000      0.90789700000000
 H      0.09210300000000      0.34568400000000      0.92361200000000
 H      0.90789700000000      0.65431600000000      0.07638800000000
 H      0.90529500000000      0.07285000000000      0.65713900000000
 H      0.09470500000000      0.92715000000000      0.34286100000000
 H      0.65713900000000      0.90529500000000      0.07285000000000
 H      0.34286100000000      0.09470500000000      0.92715000000000
 H      0.07285000000000      0.65713900000000      0.90529500000000
 H      0.92715000000000      0.34286100000000      0.09470500000000
 H      0.34031000000000      0.62793400000000      0.93209400000000
 H      0.65969000000000      0.37206600000000      0.06790600000000
 H      0.93209400000000      0.34031000000000      0.62793400000000
 H      0.06790600000000      0.65969000000000      0.37206600000000
 H      0.62793400000000      0.93209400000000      0.34031000000000
 H      0.37206600000000      0.06790600000000      0.65969000000000
 H      0.34018900000000      0.61844600000000      0.10878700000000
 H      0.65981100000000      0.38155400000000      0.89121300000000
 H      0.10878700000000      0.34018900000000      0.61844600000000
 H      0.89121300000000      0.65981100000000      0.38155400000000
 H      0.61844600000000      0.10878700000000      0.34018900000000
 H      0.38155400000000      0.89121300000000      0.65981100000000
 O      0.76150000000000      0.41959300000000      0.58473800000000
 O      0.23850000000000      0.58040700000000      0.41526200000000
 O      0.58473800000000      0.76150000000000      0.41959300000000
 O      0.41526200000000      0.23850000000000      0.58040700000000
 O      0.41959300000000      0.58473800000000      0.76150000000000
 O      0.58040700000000      0.41526200000000      0.23850000000000
 O      0.55406000000000      0.25473100000000      0.41774800000000
 O      0.44594000000000      0.74526900000000      0.58225200000000
 O      0.41774800000000      0.55406000000000      0.25473100000000
 O      0.58225200000000      0.44594000000000      0.74526900000000
 O      0.25473100000000      0.41774800000000      0.55406000000000
 O      0.74526900000000      0.58225200000000      0.44594000000000
 O      0.42229500000000      0.76638200000000      0.23380900000000
 O      0.57770500000000      0.23361800000000      0.76619100000000
 O      0.23380900000000      0.42229500000000      0.76638200000000
 O      0.76619100000000      0.57770500000000      0.23361800000000
 O      0.76638200000000      0.23380900000000      0.42229500000000
 O      0.23361800000000      0.76619100000000      0.57770500000000
 O      0.22696000000000      0.58333300000000      0.75904800000000
 O      0.77304000000000      0.41666700000000      0.24095200000000
 O      0.75904800000000      0.22696000000000      0.58333300000000
 O      0.24095200000000      0.77304000000000      0.41666700000000
 O      0.58333300000000      0.75904800000000      0.22696000000000
 O      0.41666700000000      0.24095200000000      0.77304000000000
 O      0.54465000000000      0.33621200000000      0.54765100000000
 O      0.45535000000000      0.66378800000000      0.45234900000000
 O      0.54765100000000      0.54465000000000      0.33621200000000
 O      0.45234900000000      0.45535000000000      0.66378800000000
 O      0.33621200000000      0.54765100000000      0.54465000000000
 O      0.66378800000000      0.45234900000000      0.45535000000000
Zr      0.61898000000000      0.37300900000000      0.62218800000000
Zr      0.38102000000000      0.62699100000000      0.37781200000000
Zr      0.62218800000000      0.61898000000000      0.37300900000000
Zr      0.37781200000000      0.38102000000000      0.62699100000000
Zr      0.37300900000000      0.62218800000000      0.61898000000000
Zr      0.62699100000000      0.37781200000000      0.38102000000000
