&CONTROL
  calculation = 'scf'
  pseudo_dir = '/home/mehlhorn/pseudos/UiO-66_pbe-mt_fhi/'
/

&SYSTEM
  ibrav = 0
  A =   14.83397
  nat = 114
  ntyp = 4
  ecutwfc = 150                           ! optimieren, mehr ist besser
  ecutrho = 900                           ! 6x ecutwfc Quelle: Kortus
  nbnd = 484                              ! optimieren, mehr ist besser ! gleich der elektronenzahl
  nosym = .TRUE.
  noinv = .TRUE.

  input_dft = 'hse'
  x_gamma_extrapolation = .TRUE.
  exxdiv_treatment = 'gygi-baldereschi'
/

&ELECTRONS
  mixing_beta = 0.7
  conv_thr = 1D-10
/

ATOMIC_SPECIES
   H    1.00750   H.pbe-mt_fhi.UPF
  Zr   91.22400  Zr.pbe-mt_fhi.UPF
   C   12.01060   C.pbe-mt_fhi.UPF
   O   15.99900   O.pbe-mt_fhi.UPF             !keine USPP

K_POINTS (crystal)
1
  0 0 0 1                             ! optimieren, mehr ist besser, muss uniform sein
                                          ! gamma muss reichen und reicht für UiO-66 vermutlich auch

! primitive cell of Fm-3m from Schwalbe

CELL_PARAMETERS {alat}
  1.000000000000000   0.000000000000000   0.000000000000000
  0.500000000000000   0.866025403784439   0.000000000000000
  0.500000000000000   0.288675134594813   0.816496580927726

ATOMIC_POSITIONS {crystal}
Zr   0.879600000000000   0.120400000000000   0.120400000000000
Zr   0.120400000000000   0.879600000000000   0.879600000000000
Zr   0.120400000000000   0.120400000000000   0.879600000000000
Zr   0.879600000000000   0.120400000000000   0.879600000000000
Zr   0.120400000000000   0.879600000000000   0.120400000000000
Zr   0.879600000000000   0.879600000000000   0.120400000000000
 O   0.067270000000000   0.067270000000000   0.067270000000000
 O   0.737300000000000   0.073600000000000   0.267900000000000
 O   0.073600000000000   0.737300000000000   0.921200000000000
 O   0.267900000000000   0.921200000000000   0.737300000000000
 O   0.921200000000000   0.267900000000000   0.073600000000000
 O   0.267900000000000   0.073600000000000   0.921200000000000
 O   0.921200000000000   0.073600000000000   0.737300000000000
 O   0.073600000000000   0.267900000000000   0.737300000000000
 O   0.267900000000000   0.737300000000000   0.073600000000000
 O   0.921200000000000   0.737300000000000   0.267900000000000
 O   0.073600000000000   0.921200000000000   0.267900000000000
 O   0.737300000000000   0.921200000000000   0.073600000000000
 O   0.737300000000000   0.267900000000000   0.921200000000000
 O   0.737300000000000   0.073600000000000   0.921200000000000
 O   0.073600000000000   0.737300000000000   0.267900000000000
 O   0.267900000000000   0.921200000000000   0.073600000000000
 O   0.921200000000000   0.267900000000000   0.737300000000000
 O   0.267900000000000   0.073600000000000   0.737300000000000
 O   0.921200000000000   0.073600000000000   0.267900000000000
 O   0.073600000000000   0.267900000000000   0.921200000000000
 O   0.267900000000000   0.737300000000000   0.921200000000000
 O   0.921200000000000   0.737300000000000   0.073600000000000
 O   0.073600000000000   0.921200000000000   0.737300000000000
 O   0.737300000000000   0.921200000000000   0.267900000000000
 O   0.737300000000000   0.267900000000000   0.073600000000000
 O   0.067270000000000   0.067270000000000   0.798190000000000
 O   0.067270000000000   0.798190000000000   0.067270000000000
 O   0.798190000000000   0.067270000000000   0.067270000000000
 O   0.950570000000000   0.950570000000000   0.950570000000000
 O   0.148290000000000   0.950570000000000   0.950570000000000
 O   0.950570000000000   0.148290000000000   0.950570000000000
 O   0.950570000000000   0.950570000000000   0.148290000000000
 C   0.995900000000000   0.308800000000000   0.995900000000000
 C   0.553400000000000   0.075300000000000   0.459600000000000
 C   0.075300000000000   0.553400000000000   0.911700000000000
 C   0.459600000000000   0.911700000000000   0.553400000000000
 C   0.911700000000000   0.459600000000000   0.075300000000000
 C   0.459600000000000   0.075300000000000   0.911700000000000
 C   0.911700000000000   0.075300000000000   0.553400000000000
 C   0.075300000000000   0.459600000000000   0.553400000000000
 C   0.459600000000000   0.553400000000000   0.075300000000000
 C   0.911700000000000   0.553400000000000   0.459600000000000
 C   0.075300000000000   0.911700000000000   0.459600000000000
 C   0.553400000000000   0.911700000000000   0.075300000000000
 C   0.553400000000000   0.459600000000000   0.911700000000000
 C   0.553400000000000   0.075300000000000   0.911700000000000
 C   0.075300000000000   0.553400000000000   0.459600000000000
 C   0.459600000000000   0.911700000000000   0.075300000000000
 C   0.911700000000000   0.459600000000000   0.553400000000000
 C   0.459600000000000   0.075300000000000   0.553400000000000
 C   0.911700000000000   0.075300000000000   0.459600000000000
 C   0.075300000000000   0.459600000000000   0.911700000000000
 C   0.459600000000000   0.553400000000000   0.911700000000000
 C   0.911700000000000   0.553400000000000   0.075300000000000
 C   0.075300000000000   0.911700000000000   0.553400000000000
 C   0.553400000000000   0.911700000000000   0.459600000000000
 C   0.553400000000000   0.459600000000000   0.075300000000000
 C   0.308800000000000   0.995900000000000   0.699400000000000
 C   0.995900000000000   0.699400000000000   0.995900000000000
 C   0.699400000000000   0.995900000000000   0.308800000000000
 C   0.995900000000000   0.308800000000000   0.699400000000000
 C   0.699400000000000   0.308800000000000   0.995900000000000
 C   0.308800000000000   0.995900000000000   0.995900000000000
 C   0.995900000000000   0.995900000000000   0.308800000000000
 C   0.699400000000000   0.995900000000000   0.995900000000000
 C   0.308800000000000   0.699400000000000   0.995900000000000
 C   0.995900000000000   0.699400000000000   0.308800000000000
 C   0.995900000000000   0.995900000000000   0.699400000000000
 C   0.600500000000000   0.993800000000000   0.993800000000000
 C   0.993800000000000   0.600500000000000   0.411900000000000
 C   0.411900000000000   0.993800000000000   0.993800000000000
 C   0.993800000000000   0.411900000000000   0.600500000000000
 C   0.411900000000000   0.993800000000000   0.600500000000000
 C   0.993800000000000   0.993800000000000   0.411900000000000
 C   0.993800000000000   0.411900000000000   0.993800000000000
 C   0.411900000000000   0.600500000000000   0.993800000000000
 C   0.993800000000000   0.600500000000000   0.993800000000000
 C   0.993800000000000   0.993800000000000   0.600500000000000
 C   0.600500000000000   0.993800000000000   0.411900000000000
 C   0.600500000000000   0.411900000000000   0.993800000000000
 H   0.590900000000000   0.138000000000000   0.422000000000000
 H   0.138000000000000   0.590900000000000   0.849100000000000
 H   0.422000000000000   0.849100000000000   0.590900000000000
 H   0.849100000000000   0.422000000000000   0.138000000000000
 H   0.422000000000000   0.138000000000000   0.849100000000000
 H   0.849100000000000   0.138000000000000   0.590900000000000
 H   0.138000000000000   0.422000000000000   0.590900000000000
 H   0.422000000000000   0.590900000000000   0.138000000000000
 H   0.849100000000000   0.590900000000000   0.422000000000000
 H   0.138000000000000   0.849100000000000   0.422000000000000
 H   0.590900000000000   0.849100000000000   0.138000000000000
 H   0.590900000000000   0.422000000000000   0.849100000000000
 H   0.590900000000000   0.138000000000000   0.849100000000000
 H   0.138000000000000   0.590900000000000   0.422000000000000
 H   0.422000000000000   0.849100000000000   0.138000000000000
 H   0.849100000000000   0.422000000000000   0.590900000000000
 H   0.422000000000000   0.138000000000000   0.590900000000000
 H   0.849100000000000   0.138000000000000   0.422000000000000
 H   0.138000000000000   0.422000000000000   0.849100000000000
 H   0.422000000000000   0.590900000000000   0.849100000000000
 H   0.849100000000000   0.590900000000000   0.138000000000000
 H   0.138000000000000   0.849100000000000   0.590900000000000
 H   0.590900000000000   0.849100000000000   0.422000000000000
 H   0.590900000000000   0.422000000000000   0.138000000000000
 H   0.093770000000000   0.093770000000000   0.718690000000000
 H   0.093770000000000   0.718690000000000   0.093770000000000
 H   0.093770000000000   0.093770000000000   0.093770000000000
 H   0.718690000000000   0.093770000000000   0.093770000000000




