

&CONTROL
 calculation='scf'
 title='UiO-66-dehydrox ecut convergence'
! convergence criterion 1 meV = 3.675e-5 Hartree(a.u.)
 pseudo_dir = '/home/mehlhorn/pseudos/UiO-66_pbe-spn-kjpaw/'
/

&SYSTEM
  ibrav = 0
  celldm(1) = 27.59009591 ! from previous run
  nat = 108
  ntyp = 4 ! from cif
! activation of DFT+U Hubbard correction?
  ecutwfc = 150 ! Ry Trepte2017
  ecutrho = 600 ! Kortus: 6xecutrho
  occupations = 'fixed' ! band gap Valenzano2011
  input_dft = 'PBE' ! not PBEsol for method consistency with the molecular calculations
/

&ELECTRONS
  conv_thr = 1D-8 ! one order of magnitude below the geometry optimization thershold
/


K_POINTS gamma ! should converge for MOFs

ATOMIC_SPECIES
   H    1.00750   H.pbe-kjpaw_psl.1.0.0.UPF
  Zr   91.22400  Zr.pbe-spn-kjpaw_psl.1.0.0.UPF
   C   12.01060   C.pbe-n-kjpaw_psl.1.0.0.UPF
   O   15.99900   O.pbe-n-kjpaw_psl.1.0.0.UPF ! Trepte2017

! from 100 Ry geometry optimization (bfgs not converged)

CELL_PARAMETERS (alat)
   0.997810689   0.000095007   0.000067698
   0.473417990   0.878351909   0.000067573
   0.473417702   0.282669951   0.831625357

ATOMIC_POSITIONS (crystal)
Zr               0.8730119090        0.1189683950        0.1221827821
Zr               0.1269880910        0.8810306050        0.8778172179
Zr               0.1221828811        0.8730119631        0.1189677154
Zr               0.8778171189        0.1269880369        0.8810312846
Zr               0.1189685450        0.1221828766        0.8730112160
Zr               0.8810304550        0.8778171234        0.1269887840
O                0.9196051423        0.2614956323        0.0847293147
O                0.0803948577        0.7385043677        0.9152706853
O                0.0847281485        0.9196054760        0.2614962093
O                0.9152718515        0.0803945240        0.7385037907
O                0.2614967902        0.0847300441        0.9196021091
O                0.7385032098        0.9152699559        0.0803978909
O                0.7547259632        0.0540522151        0.9177700700
O                0.2452740368        0.9459477849        0.0822299300
O                0.9177684196        0.7547248067        0.0540550275
O                0.0822315804        0.2452751933        0.9459449725
O                0.0540554412        0.9177676956        0.7547253380
O                0.9459445588        0.0822323044        0.2452746620
O                0.2663790385        0.9223132237        0.7338097018
O                0.7336209615        0.0776867763        0.2661902982
O                0.7338091761        0.2663787722        0.9223155585
O                0.2661908239        0.7336212278        0.0776844415
O                0.9223131900        0.7338097222        0.2663790464
O                0.0776868100        0.2661902778        0.7336209536
O                0.0835276546        0.7269660780        0.2590490467
O                0.9164723454        0.2730339220        0.7409509533
O                0.2590486529        0.0835277916        0.7269662301
O                0.7409513471        0.9164722084        0.2730337699
O                0.7269667182        0.2590490585        0.0835295072
O                0.2730332818        0.7409509415        0.9164704928
O                0.8362338899        0.0446360148        0.0476470817
O                0.1637661101        0.9553639852        0.9523529183
O                0.0476462126        0.8362340126        0.0446358457
O                0.9523537874        0.1637659874        0.9553641543
O                0.0446361220        0.0476460327        0.8362344796
O                0.9553638780        0.9523539673        0.1637655204
C                0.6969870816        0.9971093656        0.3091861538
C                0.3030129184        0.0028906344        0.6908138462
C                0.3091861055        0.6969867881        0.9971099048
C                0.6908138945        0.3030132119        0.0028900952
C                0.9971080084        0.3091860352        0.6969869650
C                0.0028919916        0.6908139648        0.3030130350
C               -0.0000753150        0.7042714987        0.9881947388
C                1.0000753150        0.2957285013        0.0118052612
C                0.9881929616       -0.0000727317        0.7042713205
C                0.0118070384        1.0000727317        0.2957286795
C                0.7042715171        0.9881937058       -0.0000738487
C                0.2957284829        0.0118062942        1.0000738487
C                0.9998674480        0.4016157138        0.0050093623
C                0.0001325520        0.5983842862        0.9949906377
C                0.0050082863        0.9998683549        0.4016157063
C                0.9949917137        0.0001316451        0.5983842937
C                0.4016156717        0.0050096757        0.9998669605
C                0.5983843283        0.9949903243        0.0001330395
C                0.4044616385        0.0016336515        0.5919883363
C                0.5955383615        0.9983663485        0.4080116637
C                0.5919883449        0.4044617049        0.0016349968
C                0.4080116551        0.5955382951        0.9983650032
C                0.0016333847        0.5919884639        0.4044618490
C                0.9983666153        0.4080115361        0.5955381510
C                0.9098430792        0.4626241158        0.0721988546
C                0.0901569208        0.5373758842        0.9278011454
C                0.0721987617        0.9098411523        0.4626253983
C                0.9278012383        0.0901588477        0.5373746017
C                0.4626257029        0.0721978358        0.9098415517
C                0.5373742971        0.9278021642        0.0901584483
C                0.5603309189        0.0671809935        0.9098935294
C                0.4396690811        0.9328190065        0.0901064706
C                0.9098937387        0.5603294216        0.0671829419
C                0.0901062613        0.4396705784        0.9328170581
C                0.0671812332        0.9098944084        0.5603302241
C                0.9328187668        0.0901055916        0.4396697759
C                0.4577300572        0.9128794414        0.5510990612
C                0.5422699428        0.0871205586        0.4489009388
C                0.5510999018        0.4577301337        0.9128786584
C                0.4489000982        0.5422698663        0.0871213416
C                0.9128801638        0.5510997553        0.4577294512
C                0.0871198362        0.4489002447        0.5422705488
C                0.0887378524        0.5402374553        0.4474189310
C                0.9112621476        0.4597625447        0.5525810690
C                0.4474182695        0.0887368425        0.5402380947
C                0.5525817305        0.9112631575        0.4597619053
C                0.5402374328        0.4474183686        0.0887368467
C                0.4597625672        0.5525816314        0.9112631533
H                0.5920896658        0.4236263791        0.8457082217
H                0.4079103342        0.5763736209        0.1542917783
H                0.8457085956        0.5920897624        0.4236250300
H                0.1542914044        0.4079102376        0.5763749700
H                0.4236264748        0.8457082274        0.5920880500
H                0.5763735252        0.1542917726        0.4079119500
H                0.5728273097        0.4053087688        0.1571144683
H                0.4271726903        0.5946912312        0.8428855317
H                0.1571139945        0.5728270827        0.4053103609
H                0.8428860055        0.4271729173        0.5946896391
H                0.4053088775        0.1571132958        0.5728283524
H                0.5946911225        0.8428867042        0.4271716476
H                0.1279189581        0.8403423351        0.4321080579
H                0.8720810419        0.1596576649        0.5678919421
H                0.4321085939        0.1279184395        0.8403415322
H                0.5678914061        0.8720815605        0.1596584678
H                0.8403437191        0.4321059474        0.1279207025
H                0.1596562809        0.5678940526        0.8720792975
H                0.1184264766        0.8402209079        0.6087697719
H                0.8815735234        0.1597790921        0.3912302281
H                0.6087705061        0.1184249364        0.8402209001
H                0.3912294939        0.8815750636        0.1597790999
H                0.8402218437        0.6087679610        0.1184279177
H                0.1597781563        0.3912320390        0.8815720823
