
&INPUTPH
  fildyn   = 'dyn'
  fildvscf = 'dvscf'
  ldisp    = .true.
  nq1 = 1 
  nq2 = 1
  nq3 = 1
  tr2_ph   =  1.0d-14
/
