#************************************************************************************
#*                   Generated by cif2cell 2.1.0 2025-05-02 14:31                   *
#*  T. Bjorkman, Comp. Phys. Commun. 182, 1183-1186 (2011). Please cite generously. *
#*                                                                                  *
#*                              Data obtained from COD                              *
#*                                    None   ()                                     *
#*             Failed to get author information, No journal information             *
#************************************************************************************

&CONTROL
 calculation='scf'
 title='UiO-66 Erster Versuch'
! convergence criterion 1 meV = 3.675e-5 Hartree(a.u.)
!  etot_conv_thr = 3.6D-6 not used for single point ! one order of magnitude below over all conv criterion
 forc_conv_thr = 1.0D-3 ! see optimization of Ba(BH4)2
 nstep = 750 ! should run about 15 h
 pseudo_dir = '/home/mehlhorn/pseudos/UiO-66_pbe-spn-kjpaw/'
/

&SYSTEM
  ibrav = 5
  celldm(1) =   28.03214265316778
  celldm(4) =    0.50000000000000
  nat = 114
  ntyp = 4
! from cif
! activation of DFT+U Hubbard correction?
  ecutwfc = 150 ! Ry Trepte2017
  ecutrho = 900 ! Kortus: 6xecutrho
  occupations = 'fixed'
! UiO-66 is defenetly an insulator
  input_dft = 'PBE'
! not PBEsol for method consistency with the molecular calculations
/

&ELECTRONS
  conv_thr = 1D-8
! one order of magnitude below the geometry optimization thershold
/

&IONS
  ion_dynamics = 'bfgs' ! understood algorithm
/

&CELL
  cell_dynamics = 'bfgs'
/

K_POINTS gamma
! should converge for MOFs

ATOMIC_SPECIES
   H    1.00750   H.pbe-kjpaw_psl.1.0.0.UPF
  Zr   91.22400  Zr.pbe-spn-kjpaw_psl.1.0.0.UPF
   C   12.01060   C.pbe-n-kjpaw_psl.1.0.0.UPF
   O   15.99900   O.pbe-n-kjpaw_psl.1.0.0.UPF
! Trepte2017

! primitive cell of Fm-3m from Schwalbe

ATOMIC_POSITIONS crystal
 C      0.00410000000000      0.00410000000000      0.30060000000000
 C      0.00410000000000      0.00410000000000      0.69120000000000
 C      0.30060000000000      0.69120000000000      0.00410000000000
 C      0.69120000000000      0.30060000000000      0.00410000000000
 C      0.30060000000000      0.00410000000000      0.00410000000000
 C      0.69120000000000      0.00410000000000      0.00410000000000
 C      0.00410000000000      0.30060000000000      0.69120000000000
 C      0.00410000000000      0.69120000000000      0.30060000000000
 C      0.00410000000000      0.30060000000000      0.00410000000000
 C      0.00410000000000      0.69120000000000      0.00410000000000
 C      0.69120000000000      0.00410000000000      0.30060000000000
 C      0.30060000000000      0.00410000000000      0.69120000000000
 C      0.08830000000000      0.44660000000000      0.92470000000000
 C      0.44660000000000      0.08830000000000      0.54040000000000
 C      0.92470000000000      0.54040000000000      0.08830000000000
 C      0.54040000000000      0.92470000000000      0.44660000000000
 C      0.92470000000000      0.08830000000000      0.44660000000000
 C      0.54040000000000      0.44660000000000      0.08830000000000
 C      0.08830000000000      0.92470000000000      0.54040000000000
 C      0.44660000000000      0.54040000000000      0.92470000000000
 C      0.44660000000000      0.92470000000000      0.08830000000000
 C      0.08830000000000      0.54040000000000      0.44660000000000
 C      0.54040000000000      0.08830000000000      0.92470000000000
 C      0.92470000000000      0.44660000000000      0.54040000000000
 C      0.44660000000000      0.08830000000000      0.92470000000000
 C      0.08830000000000      0.44660000000000      0.54040000000000
 C      0.54040000000000      0.92470000000000      0.08830000000000
 C      0.92470000000000      0.54040000000000      0.44660000000000
 C      0.08830000000000      0.92470000000000      0.44660000000000
 C      0.44660000000000      0.54040000000000      0.08830000000000
 C      0.92470000000000      0.08830000000000      0.54040000000000
 C      0.54040000000000      0.44660000000000      0.92470000000000
 C      0.92470000000000      0.44660000000000      0.08830000000000
 C      0.54040000000000      0.08830000000000      0.44660000000000
 C      0.08830000000000      0.54040000000000      0.92470000000000
 C      0.44660000000000      0.92470000000000      0.54040000000000
 C      0.00620000000000      0.00620000000000      0.58810000000000
 C      0.00620000000000      0.00620000000000      0.39950000000000
 C      0.58810000000000      0.39950000000000      0.00620000000000
 C      0.39950000000000      0.58810000000000      0.00620000000000
 C      0.58810000000000      0.00620000000000      0.00620000000000
 C      0.39950000000000      0.00620000000000      0.00620000000000
 C      0.00620000000000      0.58810000000000      0.39950000000000
 C      0.00620000000000      0.39950000000000      0.58810000000000
 C      0.00620000000000      0.58810000000000      0.00620000000000
 C      0.00620000000000      0.39950000000000      0.00620000000000
 C      0.39950000000000      0.00620000000000      0.58810000000000
 C      0.58810000000000      0.00620000000000      0.39950000000000
 H      0.15090000000000      0.40910000000000      0.86200000000000
 H      0.40910000000000      0.15090000000000      0.57800000000000
 H      0.86200000000000      0.57800000000000      0.15090000000000
 H      0.57800000000000      0.86200000000000      0.40910000000000
 H      0.86200000000000      0.15090000000000      0.40910000000000
 H      0.57800000000000      0.40910000000000      0.15090000000000
 H      0.15090000000000      0.86200000000000      0.57800000000000
 H      0.40910000000000      0.57800000000000      0.86200000000000
 H      0.40910000000000      0.86200000000000      0.15090000000000
 H      0.15090000000000      0.57800000000000      0.40910000000000
 H      0.57800000000000      0.15090000000000      0.86200000000000
 H      0.86200000000000      0.40910000000000      0.57800000000000
 H      0.40910000000000      0.15090000000000      0.86200000000000
 H      0.15090000000000      0.40910000000000      0.57800000000000
 H      0.57800000000000      0.86200000000000      0.15090000000000
 H      0.86200000000000      0.57800000000000      0.40910000000000
 H      0.15090000000000      0.86200000000000      0.40910000000000
 H      0.40910000000000      0.57800000000000      0.15090000000000
 H      0.86200000000000      0.15090000000000      0.57800000000000
 H      0.57800000000000      0.40910000000000      0.86200000000000
 H      0.86200000000000      0.40910000000000      0.15090000000000
 H      0.57800000000000      0.15090000000000      0.40910000000000
 H      0.15090000000000      0.57800000000000      0.86200000000000
 H      0.40910000000000      0.86200000000000      0.57800000000000
 H      0.90623000000000      0.90623000000000      0.90623000000000
 H      0.90623000000000      0.90623000000000      0.28131000000000
 H      0.90623000000000      0.28131000000000      0.90623000000000
 H      0.28131000000000      0.90623000000000      0.90623000000000
 O      0.93273100000000      0.93273000000000      0.93273000000000
 O      0.93273000000000      0.93273100000000      0.20180900000000
 O      0.93273000000000      0.20180900000000      0.93273100000000
 O      0.20180900000000      0.93273000000000      0.93273000000000
 O      0.07880000000000      0.26270000000000      0.92640000000000
 O      0.26270000000000      0.07880000000000      0.73210000000000
 O      0.92640000000000      0.73210000000000      0.07880000000000
 O      0.73210000000000      0.92640000000000      0.26270000000000
 O      0.92640000000000      0.07880000000000      0.26270000000000
 O      0.73210000000000      0.26270000000000      0.07880000000000
 O      0.07880000000000      0.92640000000000      0.73210000000000
 O      0.26270000000000      0.73210000000000      0.92640000000000
 O      0.26270000000000      0.92640000000000      0.07880000000000
 O      0.07880000000000      0.73210000000000      0.26270000000000
 O      0.73210000000000      0.07880000000000      0.92640000000000
 O      0.92640000000000      0.26270000000000      0.73210000000000
 O      0.26270000000000      0.07880000000000      0.92640000000000
 O      0.07880000000000      0.26270000000000      0.73210000000000
 O      0.73210000000000      0.92640000000000      0.07880000000000
 O      0.92640000000000      0.73210000000000      0.26270000000000
 O      0.07880000000000      0.92640000000000      0.26270000000000
 O      0.26270000000000      0.73210000000000      0.07880000000000
 O      0.92640000000000      0.07880000000000      0.73210000000000
 O      0.73210000000000      0.26270000000000      0.92640000000000
 O      0.92640000000000      0.26270000000000      0.07880000000000
 O      0.73210000000000      0.07880000000000      0.26270000000000
 O      0.07880000000000      0.73210000000000      0.92640000000000
 O      0.26270000000000      0.92640000000000      0.73210000000000
 O      0.04943000000000      0.04943000000000      0.04943000000000
 O      0.04943000000000      0.04943000000000      0.85171000000000
 O      0.04943000000000      0.85171000000000      0.04943000000000
 O      0.85171000000000      0.04943000000000      0.04943000000000
Zr      0.87960000000000      0.12040000000000      0.12040000000000
Zr      0.12040000000000      0.87960000000000      0.87960000000000
Zr      0.12040000000000      0.87960000000000      0.12040000000000
Zr      0.87960000000000      0.12040000000000      0.87960000000000
Zr      0.12040000000000      0.12040000000000      0.87960000000000
Zr      0.87960000000000      0.87960000000000      0.12040000000000
