

&CONTROL
 calculation='vc-relax'
 title='UiO-66-NH2-dehydrox GeomOpt'
! convergence criterion 1 meV = 3.675e-5 Hartree(a.u.)
 etot_conv_thr = 3.6D-6 ! one order of magnitude below over all conv criterion
 forc_conv_thr = 1.0D-5 ! see optimization of Ba(BH4)2
 nstep = 750
 pseudo_dir = '/home/mehlhorn/pseudos/UiO-66_pbe-spn-kjpaw/'
/

&SYSTEM
  ibrav = 0
  celldm(1) = 27.52059178 ! from previous run
  nat = 120
  ntyp = 5 ! from cif
! activation of DFT+U Hubbard correction?
  ecutwfc = 90 ! Ry Trepte2017
  ecutrho = 540 ! Kortus: 6xecutrho
  occupations = 'fixed' ! band gap Valenzano2011
  input_dft = 'PBE' ! not PBEsol for method consistency with the molecular calculations
/

&ELECTRONS
  conv_thr = 1D-8 ! one order of magnitude below the geometry optimization thershold
/

&IONS
  ion_dynamics = 'bfgs' ! understood algorithm
/

&CELL
  cell_dynamics = 'bfgs'
/

K_POINTS gamma ! should converge for MOFs

ATOMIC_SPECIES
   H    1.00750   H.pbe-kjpaw_psl.1.0.0.UPF
  Zr   91.22400  Zr.pbe-spn-kjpaw_psl.1.0.0.UPF
   C   12.01060   C.pbe-n-kjpaw_psl.1.0.0.UPF
   O   15.99900   O.pbe-n-kjpaw_psl.1.0.0.UPF ! Trepte2017
   N   14.00650   N.pbe-n-kjpaw_psl.1.0.0.UPF

! modified UiO-66-dehydrox deviated from optimized Valenzano input

CELL_PARAMETERS (alat= 27.52059178)
   0.999128117  -0.001499397  -0.001073949
   0.472592256   0.880293348  -0.001074067
   0.472592424   0.282194378   0.833837184

ATOMIC_POSITIONS (crystal)
Zr               0.8749139029        0.1199969859        0.1245582499
Zr               0.1245583453        0.8749140917        0.1199968474
Zr               0.1199969490        0.1245584725        0.8749138845
Zr               0.8836221925        0.8800808577        0.1271242518
Zr               0.1271239100        0.8836223000        0.8800808524
Zr               0.8800809281        0.1271239173        0.8836221507
O                0.9169301743        0.2642546302        0.0862815776
O                0.0862814741        0.9169296074        0.2642550611
O                0.2642551331        0.0862817015        0.9169294074
O                0.9151316183        0.0881584307        0.7375621889
O                0.0881576338        0.7375627635        0.9151316811
O                0.7375620951        0.9151317146        0.0881587998
O                0.9204022733        0.7632196982        0.0451740951
O                0.7632202662        0.0451727727        0.9204026019
O                0.2448712905        0.9532791717        0.0827365239
O                0.0451734473        0.9204027600        0.7632197628
O                0.8368147701        0.0467032240        0.0501610269
O                0.0501611080        0.8368147223        0.0467033062
O                0.0827366279        0.2448722955        0.9532779014
O                0.9532781632        0.0827363220        0.2448720737
O                0.2676706001        0.7357675888        0.0808087479
O                0.0808088286        0.2676705159        0.7357673199
O                0.7282175498        0.2627917387        0.0827059859
O                0.9242541426        0.7348598090        0.2644121572
O                0.2644121107        0.9242542155        0.7348598886
O                0.7348599377        0.2644119775        0.9242540337
O                0.0467033225        0.0501612608        0.8368144830
O                0.7453274124        0.9184079584        0.2748421264
O                0.0827061800        0.7282174762        0.2627917110
O                0.9574469532        0.9542888811        0.1643972410
O                0.9542889365        0.1643972486        0.9574469029
O                0.1643971567        0.9574471183        0.9542888271
O                0.9184077833        0.2748421152        0.7453275694
O                0.2627917143        0.0827063071        0.7282173520
O                0.2748420481        0.7453274921        0.9184079722
O                0.7357674017        0.0808089211        0.2676703239
N                0.7991706003        0.4600242642        0.1167621973
N                0.1167610262        0.7991703037        0.4600251186
N                0.4600260148        0.1167604461        0.7991699573
N                0.8166483954        0.5987458764        0.4318425448
N                0.5987461314        0.4318426798        0.8166481055
N                0.4318421515        0.8166487945        0.5987458809
C                0.0039523834        0.7081190072        0.9841411281
C                0.9841410939        0.0039527645        0.7081186475
C                0.0151621857       -0.0012601713        0.2987833479
C                0.7081189898        0.9841407046        0.0039527218
C               -0.0042931258        0.4051286247        0.0079441949
C                0.4051284828        0.0079441536       -0.0042930035
C                0.2987830710        0.0151628305       -0.0012602571
C               -0.0012600117        0.2987832451        0.0151623449
C                0.8980385557        0.4794670141        0.0585301246
C                0.0585295238        0.8980384828        0.4794674022
C                0.0980106442        0.5298493313        0.9412960101
C                0.9918572667        0.0020400697        0.6027652514
C                0.0020399369        0.6027654409        0.9918572064
C                0.6027655093        0.9918568180        0.0020400402
C                0.0079439416       -0.0042929846        0.4051285249
C                0.9501050305        0.0933326659        0.4330924160
C                0.3108271102        0.7001315986        0.9993462527
C                0.7001316423        0.9993462336        0.3108269863
C                0.9993462036        0.3108268684        0.7001316213
C                0.5941245364        0.4066762057       -0.0016257005
C                0.0028895512        0.6909297565        0.3055830154
C                0.6909297308        0.3055829937        0.0028896124
C                0.9412963190        0.0980111042        0.5298485856
C                0.5777414511        0.0486164889        0.9045062274
C                0.4330920871        0.9501054031        0.0933327125
C                0.0933326733        0.4330927918        0.9501046118
C                0.0486171602        0.9045062649        0.5777408784
C                0.5298486110        0.9412962888        0.0980111659
C                0.9045059235        0.5777407794        0.0486179714
C                0.4794677116        0.0585291500        0.8980384326
C                0.4481433848        0.0873467529        0.5409185695
C                0.9116127150        0.4598657208        0.5597592021
C                0.5597592581        0.9116127634        0.4598658566
C                0.9077746814        0.5523335387        0.4638304186
C                0.4638301644        0.9077748773        0.5523335876
C                0.5986856536        1.0001877321        0.4093751853
C                0.5523336196        0.4638306494        0.9077745783
C                0.4598661267        0.5597590684        0.9116127190
C                0.0873463539        0.5409188292        0.4481437523
C                0.5409188404        0.4481437674        0.0873462728
C               -0.0016255567        0.5941243568        0.4066763021
C                0.4501592497        0.5422112785        0.0898099363
C                0.5422113711        0.0898101098        0.4501588534
C                0.0898099375        0.4501590637        0.5422114191
C                1.0001875674        0.4093750859        0.5986856455
C                0.4066760211       -0.0016252305        0.5941240668
C                0.4093751548        0.5986858042        1.0001874667
C                0.3055828087        0.0028898304        0.6909295402
H                0.1741701422        0.5499832939        0.8974575615
H                0.8974583732        0.1741705671        0.5499823767
H                0.8311424494        0.6357925599        0.0864897785
H                0.1664464792        0.3745462305        0.9128881599
H                0.5499820825        0.8974584624        0.1741706743
H                0.9128889638        0.1664467483        0.3745453582
H                0.6357938710        0.0864877312        0.8311425016
H                0.3745449227        0.9128896045        0.1664467704
H                0.0864887612        0.8311426208        0.6357930623
H                0.5727460904        0.1593852035        0.4095249113
H                0.1593850038        0.4095251556        0.5727461463
H                0.4095251403        0.5727460438        0.1593849600
H                0.5734173676        0.4020949026        0.1560582520
H                0.1560583741        0.5734173151        0.4020949810
H                0.4272532263        0.6051413489        0.8429266217
H                0.4020945289        0.1560587795        0.5734168725
H                0.6051412959        0.8429266518        0.4272534183
H                0.7927884674        0.3932619675        0.1172013543
H                0.7303040862        0.5248405757        0.1292087636
H                0.8429266609        0.4272530439        0.6051411159
H                0.8201070452        0.6571200619        0.3567265367
H                0.3567261834        0.8201072535        0.6571202491
H                0.7652541380        0.5546143489        0.4653033178
H                0.1292072126        0.7303041241        0.5248413863
H                0.6571207148        0.3567264566        0.8201069865
H                0.5248424941        0.1292059576        0.7303040916
H                0.1172001314        0.7927883991        0.3932625845
H                0.3932632295        0.1172000030        0.7927878966
H                0.5546149988        0.4653032197        0.7652539922
H                0.4653033242        0.7652540176        0.5546147814
