

&CONTROL
 calculation='scf'
 title='UiO-66-NH2-dehydrox scf for diel'
! convergence criterion 1 meV = 3.675e-5 Hartree(a.u.)
 nstep = 750 ! should run about 15 h
 pseudo_dir = '/home/mehlhorn/pseudos/UiO-66_pbe-spn-kjpaw/'
/

&SYSTEM
  ibrav = 5 ! OptGeometry to cif, via cif2qe to input
  celldm(1) =   27.50538149362590
  celldm(4) =    0.47179479858808
  nat = 120
  ntyp = 5
! activation of DFT+U Hubbard correction?
  ecutwfc = 150 ! convergencetest
  ecutrho = 900 ! Kortus: 6xecutrho
  occupations = 'fixed' ! band gap Valenzano2011
  input_dft = 'PBE' ! not PBEsol for method consistency with the molecular calculations
/

&ELECTRONS
  conv_thr = 1D-10 ! two ordes of magnitude below usual 1D-8
/



K_POINTS automatic ! gamma point without tricks
1 1 1 0 0 0


ATOMIC_SPECIES
   H    1.00750   H.pbe-kjpaw_psl.1.0.0.UPF
  Zr   91.22400  Zr.pbe-spn-kjpaw_psl.1.0.0.UPF
   C   12.01060   C.pbe-n-kjpaw_psl.1.0.0.UPF
   O   15.99900   O.pbe-n-kjpaw_psl.1.0.0.UPF ! Trepte2017
   N   14.00650   N.pbe-n-kjpaw_psl.1.0.0.UPF

! primitive cell from Geometryoptimization calcfD-3

ATOMIC_POSITIONS crystal
 C      0.04137000000000      0.33716400000000      0.31771800000000
 C      0.31771800000000      0.04137000000000      0.33716400000000
 C      0.33716400000000      0.31771800000000      0.04137000000000
 C      0.33213000000000      0.34837400000000      0.63212600000000
 C      0.63212600000000      0.33213000000000      0.34837400000000
 C      0.34837400000000      0.63212600000000      0.33213000000000
 C      0.73844100000000      0.32906700000000      0.34124300000000
 C      0.34124300000000      0.73844100000000      0.32906700000000
 C      0.32906700000000      0.34124300000000      0.73844100000000
 C      0.81272000000000      0.23141200000000      0.39187300000000
 C      0.39187300000000      0.81272000000000      0.23141200000000
 C      0.23141200000000      0.39187300000000      0.81272000000000
 C      0.86316600000000      0.43127600000000      0.27474800000000
 C      0.27474800000000      0.86316600000000      0.43127600000000
 C      0.43127600000000      0.27474800000000      0.86316600000000
 C      0.33532000000000      0.32535000000000      0.93602700000000
 C      0.93602700000000      0.33532000000000      0.32535000000000
 C      0.32535000000000      0.93602700000000      0.33532000000000
 C      0.42664000000000      0.28346000000000      0.76645100000000
 C      0.76645100000000      0.42664000000000      0.28346000000000
 C      0.28346000000000      0.76645100000000      0.42664000000000
 C      0.03338000000000      0.64408100000000      0.33276000000000
 C      0.33276000000000      0.03338000000000      0.64408100000000
 C      0.64408100000000      0.33276000000000      0.03338000000000
 C      0.74029900000000      0.92776700000000      0.33193400000000
 C      0.33193400000000      0.74029900000000      0.92776700000000
 C      0.92776700000000      0.33193400000000      0.74029900000000
 C      0.02452000000000      0.33631900000000      0.63915700000000
 C      0.63915700000000      0.02452000000000      0.33631900000000
 C      0.33631900000000      0.63915700000000      0.02452000000000
 C      0.38206000000000      0.91095100000000      0.23783500000000
 C      0.23783500000000      0.38206000000000      0.91095100000000
 C      0.91095100000000      0.23783500000000      0.38206000000000
 C      0.42061600000000      0.78152700000000      0.87431400000000
 C      0.87431400000000      0.42061600000000      0.78152700000000
 C      0.78152700000000      0.87431400000000      0.42061600000000
 C      0.79314600000000      0.24504000000000      0.89302500000000
 C      0.89302500000000      0.79314600000000      0.24504000000000
 C      0.24504000000000      0.89302500000000      0.79314600000000
 C      0.88565000000000      0.24117000000000      0.79715400000000
 C      0.79715400000000      0.88565000000000      0.24117000000000
 C      0.24117000000000      0.79715400000000      0.88565000000000
 C      0.33333000000000      0.93197000000000      0.74266100000000
 C      0.74266100000000      0.33333000000000      0.93197000000000
 C      0.93197000000000      0.74266100000000      0.33333000000000
 C      0.87553900000000      0.78352000000000      0.42311700000000
 C      0.42311700000000      0.87553900000000      0.78352000000000
 C      0.78352000000000      0.42311700000000      0.87553900000000
 H      0.88329900000000      0.50741400000000      0.23094300000000
 H      0.23094300000000      0.88329900000000      0.50741400000000
 H      0.50741400000000      0.23094300000000      0.88329900000000
 H      0.96893100000000      0.16446100000000      0.41998100000000
 H      0.41998100000000      0.96893100000000      0.16446100000000
 H      0.16446100000000      0.41998100000000      0.96893100000000
 H      0.70797500000000      0.49976400000000      0.24619500000000
 H      0.24619500000000      0.70797500000000      0.49976400000000
 H      0.49976400000000      0.24619500000000      0.70797500000000
 H      0.49267500000000      0.90606100000000      0.74291700000000
 H      0.74291700000000      0.49267500000000      0.90606100000000
 H      0.90606100000000      0.74291700000000      0.49267500000000
 H      0.73553900000000      0.90684100000000      0.48928400000000
 H      0.48928400000000      0.73553900000000      0.90684100000000
 H      0.90684100000000      0.48928400000000      0.73553900000000
 H      0.93834900000000      0.76050400000000      0.17639900000000
 H      0.17639900000000      0.93834900000000      0.76050400000000
 H      0.76050400000000      0.17639900000000      0.93834900000000
 H      0.72651400000000      0.12623000000000      0.45046600000000
 H      0.45046600000000      0.72651400000000      0.12623000000000
 H      0.12623000000000      0.45046600000000      0.72651400000000
 H      0.85802200000000      0.06371000000000      0.46256100000000
 H      0.46256100000000      0.85802200000000      0.06371000000000
 H      0.06371000000000      0.46256100000000      0.85802200000000
 H      0.99045000000000      0.15352000000000      0.69009000000000
 H      0.69009000000000      0.99045000000000      0.15352000000000
 H      0.15352000000000      0.69009000000000      0.99045000000000
 H      0.88787200000000      0.09875000000000      0.79854400000000
 H      0.79854400000000      0.88787200000000      0.09875000000000
 H      0.09875000000000      0.79854400000000      0.88787200000000
 N      0.79325300000000      0.13258300000000      0.45005900000000
 N      0.45005900000000      0.79325300000000      0.13258300000000
 N      0.13258300000000      0.45005900000000      0.79325300000000
 N      0.93203000000000      0.15008000000000      0.76515900000000
 N      0.76515900000000      0.93203000000000      0.15008000000000
 N      0.15008000000000      0.76515900000000      0.93203000000000
 O      0.59751300000000      0.25040500000000      0.41952900000000
 O      0.41952900000000      0.59751300000000      0.25040500000000
 O      0.25040500000000      0.41952900000000      0.59751300000000
 O      0.42124000000000      0.24861100000000      0.07097000000000
 O      0.07097000000000      0.42124000000000      0.24861100000000
 O      0.24861100000000      0.07097000000000      0.42124000000000
 O      0.09630000000000      0.25367800000000      0.37890900000000
 O      0.37890900000000      0.09630000000000      0.25367800000000
 O      0.25367800000000      0.37890900000000      0.09630000000000
 O      0.28639000000000      0.57832600000000      0.41607400000000
 O      0.41607400000000      0.28639000000000      0.57832600000000
 O      0.57832600000000      0.41607400000000      0.28639000000000
 O      0.38004600000000      0.17021000000000      0.38340500000000
 O      0.38340500000000      0.38004600000000      0.17021000000000
 O      0.17021000000000      0.38340500000000      0.38004600000000
 O      0.06904000000000      0.60091100000000      0.41418300000000
 O      0.41418300000000      0.06904000000000      0.60091100000000
 O      0.60091100000000      0.41418300000000      0.06904000000000
 O      0.59617800000000      0.06163000000000      0.41596100000000
 O      0.41596100000000      0.59617800000000      0.06163000000000
 O      0.06163000000000      0.41596100000000      0.59617800000000
 O      0.06832000000000      0.25751100000000      0.59785500000000
 O      0.59785500000000      0.06832000000000      0.25751100000000
 O      0.25751100000000      0.59785500000000      0.06832000000000
 O      0.25186000000000      0.07854900000000      0.60808000000000
 O      0.60808000000000      0.25186000000000      0.07854900000000
 O      0.07854900000000      0.60808000000000      0.25186000000000
 O      0.28768000000000      0.29075500000000      0.49768500000000
 O      0.49768500000000      0.28768000000000      0.29075500000000
 O      0.29075500000000      0.49768500000000      0.28768000000000
Zr      0.45335100000000      0.20825000000000      0.45783100000000
Zr      0.45783100000000      0.45335100000000      0.20825000000000
Zr      0.20825000000000      0.45783100000000      0.45335100000000
Zr      0.21361000000000      0.21675800000000      0.46046700000000
Zr      0.46046700000000      0.21361000000000      0.21675800000000
Zr      0.21675800000000      0.46046700000000      0.21361000000000
